@relation movie_recommendations

@attribute movieId numeric
@attribute genres string
@attribute avg_rating numeric
@attribute total_ratings numeric
@attribute recommendation_score numeric

@data
1,"Adventure_Animation_Children_Comedy_Fantasy",3.9209,215,843.0000
2,"Adventure_Children_Fantasy",3.4318,110,377.5000
3,"Comedy_Romance",3.2596,52,169.5000
4,"Comedy_Drama_Romance",2.3571,7,16.5000
5,"Comedy",3.0714,49,150.5000
6,"Action_Crime_Thriller",3.9461,102,402.5000
7,"Comedy_Romance",3.1852,54,172.0000
8,"Adventure_Children",2.8750,8,23.0000
9,"Action",3.1250,16,50.0000
10,"Action_Adventure_Thriller",3.4962,132,461.5000
11,"Comedy_Drama_Romance",3.6714,70,257.0000
12,"Comedy_Horror",2.4211,19,46.0000
13,"Adventure_Animation_Children",3.1250,8,25.0000
14,"Drama",3.8333,18,69.0000
15,"Action_Adventure_Romance",3.0000,13,39.0000
16,"Crime_Drama",3.9268,82,322.0000
17,"Drama_Romance",3.7761,67,253.0000
18,"Comedy",3.7000,20,74.0000
19,"Comedy",2.7273,88,240.0000
20,"Action_Comedy_Crime_Drama_Thriller",2.5000,15,37.5000
21,"Comedy_Crime_Thriller",3.4944,89,311.0000
22,"Crime_Drama_Horror_Mystery_Thriller",3.2222,36,116.0000
23,"Action_Crime_Thriller",3.1250,16,50.0000
24,"Drama_Sci-Fi",3.1250,28,87.5000
25,"Drama_Romance",3.6250,76,275.5000
26,"Drama",3.5000,13,45.5000
27,"Children_Drama",3.3333,9,30.0000
28,"Drama_Romance",4.2273,11,46.5000
29,"Adventure_Drama_Fantasy_Mystery_Sci-Fi",4.0132,38,152.5000
30,"Crime_Drama",3.0000,3,9.0000
31,"Drama",3.1842,38,121.0000
32,"Mystery_Sci-Fi_Thriller",3.9831,177,705.0000
34,"Children_Drama",3.6523,128,467.5000
36,"Crime_Drama",3.8358,67,257.0000
38,"Children_Comedy",2.1250,4,8.5000
39,"Comedy_Romance",3.2933,104,342.5000
40,"Drama",4.2500,2,8.5000
41,"Drama_War",3.7000,15,55.5000
42,"Action_Crime_Drama",3.0000,7,21.0000
43,"Drama",3.1875,8,25.5000
44,"Action_Adventure_Fantasy",2.5435,46,117.0000
45,"Comedy_Drama_Thriller",3.3125,32,106.0000
46,"Drama_Romance",3.0667,15,46.0000
47,"Mystery_Thriller",3.9754,203,807.0000
48,"Animation_Children_Drama_Musical_Romance",3.1471,68,214.0000
49,"Drama_Romance",3.0000,1,3.0000
50,"Crime_Mystery_Thriller",4.2377,204,864.5000
52,"Comedy_Drama_Romance",3.4643,28,97.0000
53,"Adventure_Drama",5.0000,2,10.0000
54,"Children_Comedy",2.3333,3,7.0000
55,"Drama",4.0000,1,4.0000
57,"Drama",3.0625,8,24.5000
58,"Comedy_Drama_Romance",4.0270,37,149.0000
60,"Adventure_Children_Fantasy",3.2353,34,110.0000
61,"Drama_Thriller",3.7500,6,22.5000
62,"Drama",3.7062,80,296.5000
63,"Comedy_Crime",2.7143,7,19.0000
64,"Comedy_Romance",2.2000,5,11.0000
65,"Comedy",2.5323,31,78.5000
66,"Action_Sci-Fi_Thriller",2.5000,9,22.5000
68,"Comedy_Romance",3.4000,5,17.0000
69,"Comedy",3.7750,20,75.5000
70,"Action_Comedy_Horror_Thriller",3.5091,55,193.0000
71,"Action",1.7000,5,8.5000
72,"Comedy_Drama",3.2143,7,22.5000
73,"Drama_War",3.4615,13,45.0000
74,"Drama_Romance",4.0000,8,32.0000
75,"Comedy_Drama",2.2000,5,11.0000
76,"Action_Sci-Fi_Thriller",3.4000,15,51.0000
77,"Documentary",4.0000,1,4.0000
78,"Action_Crime_Drama_Thriller",3.3333,3,10.0000
79,"Drama_Thriller",2.7647,17,47.0000
80,"Children_Drama",4.0000,2,8.0000
81,"Crime_Drama_Romance",3.1071,14,43.5000
82,"Comedy_Drama",3.8750,8,31.0000
83,"Drama_Romance",3.0000,1,3.0000
85,"Drama_Romance",3.8571,7,27.0000
86,"Action_Adventure_Drama",3.9667,15,59.5000
87,"Children_Comedy",2.5000,7,17.5000
88,"Comedy",3.1562,16,50.5000
89,"Action_Thriller",3.2500,10,32.5000
92,"Drama_Horror_Thriller",2.6250,8,21.0000
93,"Comedy_Horror_Romance",2.8333,9,25.5000
94,"Comedy_Drama_Romance",3.9500,10,39.5000
95,"Action_Adventure_Thriller",3.0238,84,254.0000
96,"Comedy_Drama",3.5000,1,3.5000
97,"Crime_Drama",3.9000,10,39.0000
99,"Documentary",5.0000,2,10.0000
100,"Drama_Thriller",2.7857,14,39.0000
101,"Adventure_Comedy_Crime_Romance",3.7826,23,87.0000
102,"Comedy",2.4000,5,12.0000
103,"Mystery_Sci-Fi_Thriller",3.0000,3,9.0000
104,"Comedy",3.4394,99,340.5000
105,"Drama_Romance",3.2826,23,75.5000
106,"Comedy_Drama",4.0000,1,4.0000
107,"Adventure_Children_Comedy_Musical",3.3269,26,86.5000
108,"Documentary",4.0000,1,4.0000
110,"Action_Drama_War",4.0316,237,955.5000
111,"Crime_Drama_Thriller",4.1058,104,427.0000
112,"Action_Adventure_Comedy_Crime",3.5435,46,163.0000
113,"Drama_Mystery",3.3333,3,10.0000
116,"Documentary",3.9000,5,19.5000
117,"Crime_Drama",3.0000,1,3.0000
118,"Comedy_Romance",2.5000,2,5.0000
119,"Comedy",3.0000,2,6.0000
121,"Drama",4.0000,2,8.0000
122,"Comedy_Romance",2.6562,16,42.5000
123,"Drama_Mystery_Romance",4.3750,4,17.5000
125,"Comedy",3.5833,12,43.0000
126,"Adventure_Children_Fantasy",2.0000,7,14.0000
128,"Documentary",3.0000,1,3.0000
129,"Comedy_Romance",2.0000,1,2.0000
132,"Thriller",2.8333,6,17.0000
135,"Comedy",2.9516,31,91.5000
137,"Documentary",3.0000,1,3.0000
140,"Drama_Romance",3.5000,16,56.0000
141,"Comedy",3.4942,86,300.5000
144,"Comedy",3.3333,12,40.0000
145,"Action_Comedy_Crime_Drama_Thriller",3.2451,51,165.5000
146,"Adventure_Children",3.3333,3,10.0000
147,"Drama",3.4667,15,52.0000
148,"Drama",5.0000,1,5.0000
149,"Crime_Drama_Thriller",2.0000,1,2.0000
150,"Adventure_Drama_IMAX",3.8458,201,773.0000
151,"Action_Drama_Romance_War",3.5455,44,156.0000
152,"Drama_Horror",1.5000,2,3.0000
153,"Action_Adventure_Comedy_Crime",2.9161,137,399.5000
154,"Drama",3.8750,12,46.5000
155,"Adventure_Drama_War",2.4167,6,14.5000
156,"Comedy_Drama",3.3333,3,10.0000
157,"Comedy_War",2.8636,11,31.5000
158,"Adventure_Children",2.8065,62,174.0000
159,"Crime_Drama_Mystery",2.8929,14,40.5000
160,"Action_Adventure_Mystery_Sci-Fi",2.8772,57,164.0000
161,"Drama_Thriller_War",3.6359,103,374.5000
162,"Documentary",4.2059,17,71.5000
163,"Action_Romance_Western",3.5606,66,235.0000
164,"Crime_Film-Noir_Mystery_Thriller",3.3214,14,46.5000
165,"Action_Crime_Thriller",3.5556,144,512.0000
166,"Comedy_Crime_Drama",2.8333,3,8.5000
168,"Action_Drama_Romance",3.0833,54,166.5000
169,"Adventure_Children_Drama",2.4000,10,24.0000
170,"Action_Adventure_Crime_Thriller",3.2286,35,113.0000
171,"Comedy_Drama",3.8333,6,23.0000
172,"Action_Sci-Fi_Thriller",2.6792,53,142.0000
173,"Action_Crime_Sci-Fi",2.6694,62,165.5000
174,"Comedy",2.7000,10,27.0000
175,"Drama",3.9750,20,79.5000
176,"Comedy",4.3077,13,56.0000
177,"Horror",2.7500,8,22.0000
178,"Comedy_Drama",1.0000,1,1.0000
179,"Drama_Romance",1.5000,2,3.0000
180,"Comedy_Romance",3.4028,36,122.5000
181,"Action_Children",2.2647,17,38.5000
183,"Comedy_Horror_Thriller",3.5000,2,7.0000
184,"Drama",3.5000,2,7.0000
185,"Action_Crime_Thriller",3.0402,112,340.5000
186,"Comedy_Romance",2.8229,48,135.5000
187,"Comedy",4.1250,4,16.5000
188,"Fantasy_Horror_Mystery",3.4583,12,41.5000
189,"Comedy_Fantasy",3.0000,1,3.0000
190,"Thriller",2.8000,5,14.0000
191,"Drama_Romance",2.4167,6,14.5000
193,"Drama",2.4714,35,86.5000
194,"Comedy_Drama",3.6667,18,66.0000
195,"Comedy_Drama_Romance",3.1000,10,31.0000
196,"Horror_Sci-Fi",2.6667,45,120.0000
198,"Action_Crime_Drama_Mystery_Sci-Fi_Thriller",3.2500,28,91.0000
199,"Drama_Musical_Romance",4.1250,4,16.5000
201,"Drama_Fantasy",3.0000,1,3.0000
202,"Drama_Romance",3.0000,1,3.0000
203,"Comedy",3.4318,22,75.5000
204,"Action",2.7167,30,81.5000
205,"Comedy_Drama",3.1667,9,28.5000
206,"Documentary",3.0000,2,6.0000
207,"Drama_Romance",3.4286,21,72.0000
208,"Action_Adventure_Sci-Fi",2.9130,115,335.0000
209,"Drama",3.1667,3,9.5000
210,"Western",3.0000,4,12.0000
211,"Drama",3.5000,2,7.0000
212,"Adventure_Comedy_Crime_Mystery",3.0000,3,9.0000
213,"Drama",3.8333,6,23.0000
214,"Drama_War",4.0000,2,8.0000
215,"Drama_Romance",4.0417,24,97.0000
216,"Comedy",3.3265,49,163.0000
217,"Drama_Thriller",2.3333,6,14.0000
218,"Comedy_Drama",3.4286,14,48.0000
219,"Drama",3.0000,1,3.0000
220,"Horror",3.0000,1,3.0000
222,"Drama_Romance",3.7500,16,60.0000
223,"Comedy",3.8558,104,401.0000
224,"Comedy_Drama_Romance",3.6125,40,144.5000
225,"Drama_Thriller",3.5385,52,184.0000
227,"Action_Thriller",2.8636,22,63.0000
228,"Comedy",2.3333,3,7.0000
229,"Drama_Thriller",3.4286,7,24.0000
230,"Drama_Thriller",3.3958,24,81.5000
231,"Adventure_Comedy",3.0602,133,407.0000
232,"Comedy_Drama_Romance",3.8929,14,54.5000
233,"Drama",3.5000,12,42.0000
234,"Comedy",2.5882,17,44.0000
235,"Comedy_Drama",3.6786,70,257.5000
236,"Action_Comedy_Romance",3.4778,45,156.5000
237,"Comedy_Romance",3.3409,22,73.5000
238,"Adventure_Children",4.0000,2,8.0000
239,"Animation_Children_Comedy_Romance",3.0000,17,51.0000
240,"Thriller",2.3750,4,9.5000
241,"Children_Drama",4.0000,1,4.0000
242,"Drama_Musical",3.6000,5,18.0000
243,"Children_Comedy_Fantasy",3.0000,1,3.0000
246,"Documentary",4.2931,29,124.5000
247,"Crime_Drama",3.9286,21,82.5000
248,"Comedy",3.1765,17,54.0000
249,"Drama_Romance",3.7222,18,67.0000
250,"Children_Comedy",2.5000,6,15.0000
251,"Action",3.0000,3,9.0000
252,"Comedy_Romance",3.4535,43,148.5000
253,"Drama_Horror",3.4587,109,377.0000
254,"Drama",3.0000,1,3.0000
255,"Comedy",2.0714,7,14.5000
256,"Comedy_Sci-Fi",2.8286,35,99.0000
257,"Mystery_Thriller",3.5000,14,49.0000
258,"Adventure_Children_Comedy_Fantasy_Romance",2.6000,10,26.0000
259,"Crime_Drama_Thriller",3.2000,5,16.0000
260,"Action_Adventure_Sci-Fi",4.2311,251,1062.0000
261,"Drama",3.8810,42,163.0000
262,"Children_Drama",3.9048,21,82.0000
263,"Drama",4.0000,1,4.0000
265,"Drama_Fantasy_Romance",3.9394,33,130.0000
266,"Drama_Romance_War_Western",3.3971,68,231.0000
267,"Comedy",2.9412,17,50.0000
269,"Drama",3.0000,2,6.0000
270,"Drama_Romance",3.4000,5,17.0000
271,"Drama",3.5000,4,14.0000
272,"Comedy_Drama",3.7581,31,116.5000
273,"Drama_Horror_Sci-Fi",2.9464,28,82.5000
274,"Comedy",2.9286,7,20.5000
275,"Comedy",2.0000,6,12.0000
276,"Comedy_Romance",3.2500,22,71.5000
277,"Drama",3.2237,38,122.5000
278,"Comedy",1.5000,2,3.0000
279,"Drama",3.0000,2,6.0000
280,"Drama_Thriller",4.0769,13,53.0000
281,"Comedy_Drama_Romance",3.7857,14,53.0000
282,"Drama",3.3375,40,133.5000
283,"Crime_Drama",3.6667,3,11.0000
284,"Action_Crime",4.5000,1,4.5000
285,"Drama_Horror",4.0000,1,4.0000
287,"Comedy_Romance",3.0000,1,3.0000
288,"Action_Crime_Thriller",3.2337,92,297.5000
289,"Comedy_Romance",3.5625,8,28.5000
290,"Crime_Drama",4.0357,14,56.5000
291,"Drama_Thriller",2.3333,3,7.0000
292,"Action_Drama_Sci-Fi_Thriller",3.4257,101,346.0000
293,"Action_Crime_Drama_Thriller",4.0188,133,534.5000
294,"Comedy_Romance",3.0000,2,6.0000
295,"Comedy_Romance",3.0000,1,3.0000
296,"Comedy_Crime_Drama_Thriller",4.1971,307,1288.5000
298,"Drama",2.0000,1,2.0000
299,"Drama",4.0000,4,16.0000
300,"Drama",3.5185,81,285.0000
301,"Drama_Romance",4.0000,1,4.0000
302,"Drama_Romance",3.2000,5,16.0000
303,"Action_Thriller_Western",2.9531,32,94.5000
304,"Comedy_Drama",3.6667,3,11.0000
305,"Comedy",2.8333,9,25.5000
306,"Drama",4.2188,16,67.5000
307,"Drama",3.8958,24,93.5000
308,"Comedy_Drama",4.0250,20,80.5000
310,"Comedy",3.0000,1,3.0000
311,"Horror_Thriller",3.0000,1,3.0000
312,"Comedy",1.4444,9,13.0000
313,"Animation_Children",3.3333,3,10.0000
314,"Children_Drama_Fantasy_Mystery",3.7500,16,60.0000
315,"Action_Drama_Thriller",3.0789,38,117.0000
316,"Action_Adventure_Sci-Fi",3.3750,140,472.5000
317,"Comedy_Drama_Fantasy",3.2037,81,259.5000
318,"Crime_Drama",4.4290,317,1404.0000
319,"Comedy_Drama_Thriller",3.6000,20,72.0000
320,"Film-Noir_Thriller",3.0000,1,3.0000
321,"Drama",4.0000,2,8.0000
322,"Comedy_Drama",3.5500,10,35.5000
324,"Comedy_Drama",4.0000,1,4.0000
325,"Comedy",2.5000,7,17.5000
326,"Drama",4.0000,3,12.0000
327,"Action_Comedy_Sci-Fi",2.8235,34,96.0000
328,"Horror_Thriller",3.1500,10,31.5000
329,"Adventure_Drama_Sci-Fi",3.3935,108,366.5000
330,"Action_Crime_Horror",3.0000,6,18.0000
331,"Drama",3.0000,2,6.0000
332,"Horror_Sci-Fi",2.8333,12,34.0000
333,"Comedy",3.7800,50,189.0000
334,"Drama",4.2000,5,21.0000
335,"Mystery_Thriller",3.5000,2,7.0000
336,"Drama_War",3.0000,1,3.0000
337,"Drama",3.7662,77,290.0000
338,"Action_Sci-Fi_Thriller",2.8421,19,54.0000
339,"Comedy_Romance",3.4694,98,340.0000
340,"Adventure_Drama_War",3.4000,5,17.0000
341,"Drama",4.0000,2,8.0000
342,"Comedy",3.2727,33,108.0000
343,"Children",2.9000,5,14.5000
344,"Comedy",3.0404,161,489.5000
345,"Comedy_Drama",3.5972,36,129.5000
346,"Drama_Musical",3.5000,6,21.0000
347,"Drama_Film-Noir_Romance",3.5000,6,21.0000
348,"Comedy",3.5833,30,107.5000
349,"Action_Crime_Drama_Thriller",3.6045,110,396.5000
350,"Drama_Mystery_Thriller",3.3860,57,193.0000
351,"Comedy_Drama_Romance",3.1765,17,54.0000
352,"Comedy_Drama",2.5000,2,5.0000
353,"Action_Crime_Fantasy_Thriller",3.6094,64,231.0000
354,"Drama",3.3333,6,20.0000
355,"Children_Comedy_Fantasy",2.3571,42,99.0000
356,"Comedy_Drama_Romance_War",4.1641,329,1370.0000
357,"Comedy_Romance",3.5194,103,362.5000
358,"Drama",2.6667,9,24.0000
359,"Comedy_Drama_Romance",3.0000,1,3.0000
360,"Action_Comedy",2.6875,8,21.5000
361,"Comedy_Drama_Romance",3.0588,17,52.0000
362,"Adventure_Children_Romance",3.5294,34,120.0000
363,"Documentary",4.0000,2,8.0000
364,"Adventure_Animation_Children_Drama_Musical_IMAX",3.9419,172,678.0000
365,"Drama",3.2500,4,13.0000
366,"Drama_Horror_Mystery_Thriller",2.9167,12,35.0000
367,"Action_Comedy_Crime_Fantasy",3.1847,157,500.0000
368,"Adventure_Comedy_Western",3.5000,74,259.0000
369,"Drama",4.0000,2,8.0000
370,"Action_Comedy",3.0603,58,177.5000
371,"Comedy_Drama",3.3095,21,69.5000
372,"Comedy_Drama_Romance",2.7619,21,58.0000
373,"Thriller",3.6364,11,40.0000
374,"Children_Comedy",2.2000,25,55.0000
376,"Action_Thriller",3.2500,40,130.0000
377,"Action_Romance_Thriller",3.5292,171,603.5000
378,"Comedy_Romance",2.7857,7,19.5000
379,"Action_Sci-Fi_Thriller",2.5000,21,52.5000
380,"Action_Adventure_Comedy_Romance_Thriller",3.4972,178,622.5000
381,"Drama_Romance",3.8182,11,42.0000
382,"Drama_Horror_Romance_Thriller",3.1562,16,50.5000
383,"Western",3.0952,21,65.0000
384,"Action_Crime_Drama",3.2500,2,6.5000
385,"Drama",4.0000,1,4.0000
386,"Drama",3.0000,1,3.0000
387,"Action_Comedy",2.3750,4,9.5000
388,"Drama",3.0000,2,6.0000
389,"Drama_Romance_War",4.5000,2,9.0000
390,"Action_Crime_Drama",3.7000,5,18.5000
391,"Crime_Drama",4.5000,1,4.5000
393,"Action_Adventure_Fantasy",2.5000,10,25.0000
405,"Action_Fantasy",2.4167,12,29.0000
406,"Drama",3.0000,1,3.0000
407,"Horror_Thriller",3.4375,8,27.5000
408,"Drama",3.0000,2,6.0000
409,"Crime_Drama",2.0000,1,2.0000
410,"Children_Comedy_Fantasy",3.1012,84,260.5000
412,"Drama",3.5000,15,52.5000
413,"Comedy",2.7885,26,72.5000
414,"Comedy",2.3333,6,14.0000
415,"Comedy_Thriller",2.5312,16,40.5000
416,"Western",2.5000,8,20.0000
417,"Comedy_Romance",3.6923,13,48.0000
418,"Drama",3.0000,2,6.0000
419,"Comedy",2.6750,20,53.5000
420,"Action_Comedy_Crime_Thriller",2.7203,59,160.5000
421,"Adventure_Children_Drama",3.2083,12,38.5000
422,"Thriller",3.2000,5,16.0000
423,"Action_Thriller",2.8500,10,28.5000
424,"Drama",1.8333,3,5.5000
425,"Drama_Romance",3.7500,2,7.5000
426,"Horror_Sci-Fi_Thriller",3.1429,7,22.0000
427,"Drama_Mystery_Romance_Thriller",2.5417,12,30.5000
428,"Drama",3.7222,18,67.0000
429,"Comedy",2.0000,6,12.0000
430,"Comedy_Drama",3.7500,2,7.5000
431,"Crime_Drama",3.7381,42,157.0000
432,"Adventure_Comedy_Western",2.6455,55,145.5000
433,"Comedy",2.7500,8,22.0000
434,"Action_Adventure_Thriller",3.0347,101,306.5000
435,"Comedy_Sci-Fi",2.4206,63,152.5000
436,"Drama_Thriller",2.5714,7,18.0000
437,"Comedy",2.1667,9,19.5000
438,"Action_Comedy_Drama",2.7143,7,19.0000
440,"Comedy_Romance",3.5461,76,269.5000
441,"Comedy",3.9286,42,165.0000
442,"Action_Adventure_Sci-Fi",3.0926,81,250.5000
444,"Comedy_Romance",2.3333,6,14.0000
445,"Comedy",3.0000,12,36.0000
446,"Drama_Romance",3.8333,9,34.5000
448,"Drama",3.6250,8,29.0000
449,"Comedy",1.0000,1,1.0000
450,"Comedy_Drama",3.0000,7,21.0000
451,"Drama_Mystery_Romance",4.0000,1,4.0000
452,"Drama",3.0000,3,9.0000
453,"Comedy_Romance",2.8000,5,14.0000
454,"Drama_Thriller",3.5347,101,357.0000
455,"Adventure_Children_Drama",2.3919,37,88.5000
456,"Crime_Drama_Thriller",3.7500,4,15.0000
457,"Thriller",3.9921,190,758.5000
458,"Drama_Western",2.8000,5,14.0000
459,"Action_Adventure_Crime_Drama_Romance_Thriller",2.2500,6,13.5000
460,"Comedy",2.6667,3,8.0000
461,"Drama_Romance",2.7500,4,11.0000
464,"Action_Adventure_Crime_Thriller",2.9000,10,29.0000
466,"Action_Comedy_War",2.8667,60,172.0000
467,"Comedy",5.0000,1,5.0000
468,"Comedy_Romance",3.2045,22,70.5000
469,"Drama_Romance",3.4000,5,17.0000
470,"Comedy",1.0000,1,1.0000
471,"Comedy",3.5500,40,142.0000
472,"Comedy_Drama",2.5833,6,15.5000
473,"Comedy_War",1.8571,7,13.0000
474,"Action_Thriller",3.6929,70,258.5000
475,"Drama",4.3000,25,107.5000
476,"Comedy_Drama",1.0000,1,1.0000
477,"Drama_Musical",3.3824,17,57.5000
478,"Comedy_Crime_Drama",2.5000,1,2.5000
479,"Action_Crime_Thriller",2.2500,4,9.0000
480,"Action_Adventure_Sci-Fi_Thriller",3.7500,238,892.5000
481,"Drama_Thriller",3.1579,19,60.0000
482,"Crime_Drama_Thriller",3.6250,8,29.0000
484,"Adventure_Children",3.0000,2,6.0000
485,"Action_Adventure_Comedy_Fantasy",2.9340,53,155.5000
486,"Comedy",3.0000,3,9.0000
487,"Comedy_Western",2.5000,4,10.0000
488,"Drama_Romance",3.0000,1,3.0000
489,"Comedy",2.8636,11,31.5000
490,"Thriller",3.0000,12,36.0000
491,"Drama",3.2941,17,56.0000
492,"Comedy_Mystery",3.7500,14,52.5000
493,"Action_Crime_Drama",3.6667,12,44.0000
494,"Action_Adventure_Thriller",3.3780,41,138.5000
495,"Drama",5.0000,1,5.0000
496,"Comedy_Drama_Romance_Thriller",5.0000,1,5.0000
497,"Comedy_Romance",3.8140,43,164.0000
499,"Comedy_Romance",2.5000,2,5.0000
500,"Comedy_Drama",3.3889,144,488.0000
501,"Drama",3.6667,6,22.0000
502,"Action_Children_Romance",2.3667,15,35.5000
504,"Action_Drama_Sci-Fi",3.0000,2,6.0000
505,"Comedy",2.2143,7,15.5000
506,"Drama_Fantasy_Romance",4.5000,2,9.0000
507,"Crime_Drama_Thriller",3.3846,13,44.0000
508,"Drama",3.6136,66,238.5000
509,"Drama_Romance",3.5410,61,216.0000
510,"Drama",3.0000,1,3.0000
511,"Action_Drama",3.0000,2,6.0000
512,"Horror_Sci-Fi",3.0000,4,12.0000
513,"Comedy_Mystery_Romance",3.3750,4,13.5000
514,"Comedy",3.4167,18,61.5000
515,"Drama_Romance",3.6042,24,86.5000
516,"Comedy_Drama",3.0556,18,55.0000
517,"Action_Drama_Mystery",3.2778,9,29.5000
518,"Comedy",2.3750,4,9.5000
519,"Action_Crime_Drama_Sci-Fi_Thriller",2.4048,21,50.5000
520,"Comedy",3.1304,69,216.0000
521,"Crime_Thriller",3.1667,3,9.5000
522,"Action_Drama",3.2857,7,23.0000
523,"Drama",3.5000,4,14.0000
524,"Drama",3.4853,34,118.5000
526,"Drama",4.0000,1,4.0000
527,"Drama_War",4.2250,220,929.5000
528,"Comedy_Drama",2.3333,3,7.0000
529,"Drama",3.8750,40,155.0000
531,"Children_Drama",3.2500,24,78.0000
532,"Comedy_Crime_Horror",3.0000,16,48.0000
533,"Action_Adventure_Fantasy_Mystery",2.8889,18,52.0000
534,"Drama_Romance",3.6071,14,50.5000
535,"Drama",3.2667,15,49.0000
536,"Drama",3.3333,3,10.0000
537,"Drama",3.1667,12,38.0000
538,"Drama",3.5833,12,43.0000
539,"Comedy_Drama_Romance",3.4717,106,368.0000
540,"Thriller",2.6667,18,48.0000
541,"Action_Sci-Fi_Thriller",4.1008,124,508.5000
542,"Comedy_Drama_Romance",2.7857,14,39.0000
543,"Comedy_Romance_Thriller",3.3171,41,136.0000
544,"Action_Crime",2.4375,8,19.5000
546,"Action_Adventure_Children_Comedy_Fantasy_Sci-Fi",2.0000,21,42.0000
547,"Action_Adventure_Thriller",3.2500,2,6.5000
548,"Action_Mystery_Thriller",2.7500,6,16.5000
549,"Drama_Musical",4.5000,2,9.0000
550,"Comedy_Romance",3.4000,5,17.0000
551,"Animation_Children_Fantasy_Musical",3.5538,93,330.5000
552,"Action_Adventure_Comedy_Romance",3.2623,61,199.0000
553,"Action_Drama_Western",3.8154,65,248.0000
555,"Crime_Thriller",3.8000,65,247.0000
556,"Documentary",3.3333,6,20.0000
558,"Action_Adventure_Animation_Children_Fantasy",2.9375,8,23.5000
562,"Comedy_Drama",3.5435,23,81.5000
563,"Drama_Romance",4.0000,1,4.0000
564,"Comedy",1.5000,2,3.0000
567,"Comedy_Drama",2.0000,3,6.0000
568,"Comedy_Drama",3.5000,2,7.0000
569,"Comedy_Drama",2.6667,6,16.0000
573,"Drama",3.5000,1,3.5000
574,"Comedy_Drama",3.2500,4,13.0000
575,"Children_Comedy",2.6562,16,42.5000
577,"Adventure_Children_Drama",2.1250,4,8.5000
579,"Crime_Thriller",3.0000,1,3.0000
580,"Drama",2.8000,5,14.0000
581,"Documentary",4.0000,4,16.0000
583,"Comedy_Drama",4.0000,1,4.0000
585,"Comedy",2.7361,36,98.5000
586,"Children_Comedy",2.9957,116,347.5000
587,"Comedy_Drama_Fantasy_Romance_Thriller",3.4348,115,395.0000
588,"Adventure_Animation_Children_Comedy_Musical",3.7923,183,694.0000
589,"Action_Sci-Fi",3.9710,224,889.5000
590,"Adventure_Drama_Western",3.8354,164,629.0000
592,"Action_Crime_Thriller",3.4286,189,648.0000
593,"Crime_Horror_Thriller",4.1613,279,1161.0000
594,"Animation_Children_Drama_Fantasy_Musical",3.6169,77,278.5000
595,"Animation_Children_Fantasy_Musical_Romance_IMAX",3.7705,146,550.5000
596,"Animation_Children_Fantasy_Musical",3.4500,60,207.0000
597,"Comedy_Romance",3.4852,135,470.5000
599,"Adventure_Western",3.8182,11,42.0000
600,"Action_Comedy_Crime",4.0000,1,4.0000
602,"Documentary",4.0000,1,4.0000
605,"Drama_Romance",3.0000,10,30.0000
606,"Fantasy_Horror",3.0000,4,12.0000
608,"Comedy_Crime_Drama_Thriller",4.1160,181,745.0000
609,"Adventure_Children",3.5714,14,50.0000
610,"Action_Adventure_Animation_Horror_Sci-Fi",3.5455,33,117.0000
611,"Action_Horror_Sci-Fi",2.4167,6,14.5000
612,"Comedy",2.5000,6,15.0000
613,"Drama_Romance",3.1875,8,25.5000
615,"Comedy_Drama",3.0000,1,3.0000
616,"Animation_Children",3.4111,45,153.5000
617,"Comedy_Drama",2.8333,3,8.5000
618,"Comedy_Romance",3.0000,1,3.0000
619,"Comedy",2.6000,5,13.0000
626,"Comedy",5.0000,1,5.0000
627,"Drama_Thriller",3.3333,6,20.0000
628,"Crime_Drama_Mystery_Thriller",3.6429,35,127.5000
631,"Adventure_Animation_Children_Fantasy_Musical_Romance",3.1818,11,35.0000
632,"Drama_War",4.0000,1,4.0000
633,"Comedy",5.0000,1,5.0000
634,"Comedy",2.2500,4,9.0000
635,"Comedy_Drama",3.0000,2,6.0000
636,"Drama",3.0000,1,3.0000
637,"Comedy",3.0455,33,100.5000
638,"Romance",3.0000,1,3.0000
639,"Comedy_Drama",3.0000,4,12.0000
640,"Drama_Thriller",2.6818,11,29.5000
645,"Drama",3.5000,2,7.0000
647,"Action_Crime_Drama_War",3.3276,29,96.5000
648,"Action_Adventure_Mystery_Thriller",3.5370,162,573.0000
649,"Comedy_Drama",3.0000,1,3.0000
650,"Drama",3.0000,4,12.0000
653,"Action_Adventure_Fantasy",3.0923,65,201.0000
656,"Comedy",3.0000,5,15.0000
661,"Adventure_Animation_Children_Fantasy_Musical",3.4490,49,169.0000
662,"Thriller",3.2857,7,23.0000
663,"Comedy",3.2917,12,39.5000
665,"Comedy_Drama_War",4.3333,3,13.0000
667,"Action",2.8125,8,22.5000
668,"Drama",4.2500,2,8.5000
670,"Drama",4.7500,2,9.5000
671,"Comedy_Sci-Fi",3.4861,36,125.5000
673,"Adventure_Animation_Children_Comedy_Fantasy_Sci-Fi",2.7075,53,143.5000
674,"Adventure_Comedy_Sci-Fi",3.1667,9,28.5000
678,"Drama_Thriller",3.8333,9,34.5000
679,"Drama",4.0000,1,4.0000
680,"Drama_Mystery_Romance_Sci-Fi_Thriller",4.1250,4,16.5000
685,"Drama",4.0000,2,8.0000
688,"Action_Adventure_Comedy_War",2.3333,9,21.0000
691,"Comedy_Romance",3.3333,3,10.0000
692,"Action_Sci-Fi_Thriller",2.0000,4,8.0000
694,"Action_Crime_Drama",2.9545,11,32.5000
695,"Mystery_Thriller",4.0000,2,8.0000
697,"Drama_Romance",2.7000,5,13.5000
698,"Drama",1.0000,1,1.0000
700,"Comedy",3.2143,7,22.5000
703,"Drama",2.0000,2,4.0000
704,"Action_Adventure",2.5714,7,18.0000
706,"Drama",3.0000,1,3.0000
707,"Crime_Drama_Thriller",2.8810,21,60.5000
708,"Comedy_Romance",3.3879,58,196.5000
709,"Adventure_Animation_Children_Comedy_Musical",3.0909,11,34.0000
710,"Comedy",2.5625,8,20.5000
711,"Adventure_Children",3.0500,10,30.5000
714,"Drama_Mystery_Western",3.9667,15,59.5000
715,"Drama_Romance",3.6667,3,11.0000
718,"Comedy_Fantasy_Sci-Fi",4.1250,4,16.5000
719,"Comedy",2.8429,35,99.5000
720,"Adventure_Animation_Comedy",4.0926,27,110.5000
722,"Documentary",4.0000,1,4.0000
724,"Drama_Fantasy_Horror_Thriller",3.0323,31,94.0000
725,"Comedy",2.5000,5,12.5000
726,"Drama",3.0000,1,3.0000
728,"Comedy",3.5000,10,35.0000
731,"Crime_Thriller",3.3333,3,10.0000
733,"Action_Adventure_Thriller",3.6405,121,440.5000
735,"Horror",3.9286,7,27.5000
736,"Action_Adventure_Romance_Thriller",3.3211,123,408.5000
737,"Action_Sci-Fi",2.6500,20,53.0000
741,"Animation_Sci-Fi",4.1481,27,112.0000
742,"Horror_Thriller",2.8182,11,31.0000
743,"Comedy",2.5172,29,73.0000
745,"Animation_Children_Comedy",3.8958,48,187.0000
747,"Comedy",3.3333,3,10.0000
748,"Action_Sci-Fi_Thriller",3.1136,22,68.5000
750,"Comedy_War",4.2680,97,414.0000
757,"Drama",4.0000,1,4.0000
759,"Documentary",3.5000,2,7.0000
760,"Drama_War",4.2500,2,8.5000
761,"Action_Adventure",2.7895,19,53.0000
762,"Comedy_Crime",2.4146,41,99.0000
764,"Drama_Romance",3.5000,2,7.0000
765,"Comedy_Drama",3.1579,19,60.0000
766,"Drama",3.5000,4,14.0000
773,"Drama",3.5000,1,3.5000
775,"Horror_Mystery",3.0000,1,3.0000
778,"Comedy_Crime_Drama",4.0392,102,412.0000
779,"Drama_Romance",4.0000,2,8.0000
780,"Action_Adventure_Sci-Fi_Thriller",3.4455,202,696.0000
781,"Drama",3.5000,7,24.5000
782,"Drama_Thriller",3.0000,8,24.0000
783,"Animation_Children_Drama_Musical_Romance",3.3298,47,156.5000
784,"Comedy_Thriller",2.8056,54,151.5000
785,"Comedy",3.3690,42,141.5000
786,"Action_Drama_Thriller",3.1094,64,199.0000
788,"Comedy_Fantasy_Romance_Sci-Fi",2.7317,82,224.0000
790,"Drama",2.0000,1,2.0000
791,"Documentary",4.0000,1,4.0000
795,"Drama",3.5000,2,7.0000
798,"Action_Adventure_Drama_Thriller",2.7083,12,32.5000
799,"Comedy_Horror_Thriller",3.4565,23,79.5000
800,"Drama_Mystery_Western",4.1579,19,79.0000
801,"Children_Comedy",3.1364,11,34.5000
802,"Drama_Romance",3.3370,46,153.5000
803,"Comedy_Drama_Romance",4.0000,1,4.0000
804,"Comedy_Romance",3.2500,8,26.0000
805,"Drama_Thriller",3.6571,35,128.0000
806,"Crime_Drama",1.5000,1,1.5000
808,"Adventure_Children",3.5000,2,7.0000
809,"Action_Adventure",2.3333,9,21.0000
810,"Children_Comedy_Fantasy",2.2500,12,27.0000
813,"Comedy",2.8000,5,14.0000
818,"Comedy",3.2500,10,32.5000
823,"Drama",3.5000,1,3.5000
824,"Drama_Mystery",4.0000,1,4.0000
828,"Adventure_Children",3.3333,6,20.0000
829,"Comedy_Fantasy_Musical",2.6667,9,24.0000
830,"Comedy",3.0714,21,64.5000
832,"Crime_Thriller",3.3378,37,123.5000
833,"Comedy",2.0000,6,12.0000
835,"Drama",3.6667,3,11.0000
836,"Action_Adventure_Thriller",2.8824,17,49.0000
837,"Children_Comedy_Fantasy",3.2727,33,108.0000
838,"Comedy_Drama_Romance",3.9167,30,117.5000
839,"Action_Thriller",2.8333,15,42.5000
840,"Children_Comedy",3.3750,4,13.5000
841,"Horror",3.0000,2,6.0000
842,"Comedy_Horror",2.5417,12,30.5000
848,"Drama",3.2857,7,23.0000
849,"Action_Adventure_Sci-Fi_Thriller",2.9205,44,128.5000
851,"Drama",2.8333,6,17.0000
852,"Comedy_Drama_Romance",3.1744,43,136.5000
858,"Crime_Drama",4.2891,192,823.5000
861,"Action_Comedy_Crime_Thriller",3.8333,9,34.5000
866,"Crime_Drama_Romance_Thriller",4.0000,23,92.0000
867,"Comedy_Crime",1.7500,2,3.5000
869,"Crime_Drama_Musical_Thriller",3.6667,3,11.0000
870,"Comedy",1.0000,2,2.0000
875,"Action_Crime_Drama",3.5000,1,3.5000
876,"Action_Comedy_Crime_Thriller",5.0000,1,5.0000
879,"Horror_Thriller",3.0000,4,12.0000
880,"Sci-Fi_Thriller",2.7407,27,74.0000
881,"Children_Comedy",2.1000,5,10.5000
882,"Drama_Thriller",2.0000,1,2.0000
885,"Children_Drama_Fantasy",2.5000,2,5.0000
886,"Action_Comedy_Crime",2.6667,6,16.0000
888,"Adventure_Animation_Children_Musical",2.1667,3,6.5000
889,"Drama_Romance",4.0000,1,4.0000
891,"Horror_Thriller",3.8000,5,19.0000
892,"Comedy_Drama_Romance",3.5385,13,46.0000
893,"Drama",3.6667,3,11.0000
896,"Drama",2.5000,2,5.0000
897,"Adventure_Drama_Romance_War",3.7500,2,7.5000
898,"Comedy_Drama_Romance",4.3103,29,125.0000
899,"Comedy_Musical_Romance",4.0745,47,191.5000
900,"Musical_Romance",3.7083,12,44.5000
901,"Comedy_Musical",3.0000,7,21.0000
902,"Drama_Romance",3.8472,36,138.5000
903,"Drama_Mystery_Romance_Thriller",4.0250,60,241.5000
904,"Mystery_Thriller",4.2619,84,358.0000
905,"Comedy_Romance",4.3214,14,60.5000
906,"Drama_Thriller",4.1429,7,29.0000
907,"Comedy_Musical_Romance",3.5000,2,7.0000
908,"Action_Adventure_Mystery_Romance_Thriller",4.1842,57,238.5000
909,"Comedy_Drama_Romance",3.9630,27,107.0000
910,"Comedy_Crime",4.0100,50,200.5000
911,"Comedy_Crime_Mystery_Romance_Thriller",3.8077,13,49.5000
912,"Drama_Romance",4.2400,100,424.0000
913,"Film-Noir_Mystery",4.1705,44,183.5000
914,"Comedy_Drama_Musical_Romance",4.0429,35,141.5000
915,"Comedy_Romance",3.7667,30,113.0000
916,"Comedy_Drama_Romance",4.0577,26,105.5000
917,"Children_Drama",3.5000,2,7.0000
918,"Musical",4.1000,10,41.0000
919,"Adventure_Children_Fantasy_Musical",3.8804,92,357.0000
920,"Drama_Romance_War",3.6444,45,164.0000
921,"Comedy",3.3889,9,30.5000
922,"Drama_Film-Noir_Romance",4.3333,27,117.0000
923,"Drama_Mystery",4.0435,69,279.0000
924,"Adventure_Drama_Sci-Fi",3.8945,109,424.5000
926,"Drama",4.2292,24,101.5000
927,"Comedy",4.0000,3,12.0000
928,"Drama_Mystery_Romance_Thriller",4.1667,18,75.0000
929,"Drama_Film-Noir_Mystery_Thriller",3.5000,1,3.5000
930,"Film-Noir_Romance_Thriller",4.2500,20,85.0000
931,"Mystery_Romance_Thriller",3.8333,9,34.5000
932,"Drama_Romance",3.9375,8,31.5000
933,"Crime_Mystery_Romance_Thriller",4.2174,23,97.0000
934,"Comedy",3.2500,12,39.0000
935,"Comedy_Musical",3.8333,3,11.5000
936,"Comedy_Romance",4.0000,6,24.0000
937,"Comedy_Romance",3.5000,2,7.0000
938,"Musical",3.2500,6,19.5000
940,"Action_Adventure_Romance",4.0000,8,32.0000
941,"Adventure",3.7500,2,7.5000
942,"Crime_Film-Noir_Mystery",4.3333,6,26.0000
943,"Drama_Fantasy_Romance",3.9286,7,27.5000
944,"Drama",4.0000,3,12.0000
945,"Comedy_Musical_Romance",4.0714,7,28.5000
946,"Comedy_Drama_War",2.5000,3,7.5000
947,"Comedy_Romance",3.7500,4,15.0000
948,"Drama_Romance_Western",3.9167,6,23.5000
949,"Drama",3.9167,6,23.5000
950,"Comedy_Crime",3.8571,7,27.0000
951,"Comedy_Romance",4.3929,14,61.5000
952,"Adventure_Comedy",3.6250,12,43.5000
953,"Children_Drama_Fantasy_Romance",4.0345,58,234.0000
954,"Drama",4.0833,18,73.5000
955,"Comedy_Romance",3.8611,18,69.5000
956,"Drama_Romance",4.0000,1,4.0000
959,"Drama",3.5000,1,3.5000
961,"Drama",4.0000,1,4.0000
963,"Musical",3.0000,1,3.0000
965,"Drama_Mystery_Thriller",4.0455,11,44.5000
968,"Horror_Sci-Fi_Thriller",3.7500,28,105.0000
969,"Adventure_Comedy_Romance_War",3.9706,34,135.0000
970,"Adventure_Comedy_Crime_Drama_Romance",3.5000,1,3.5000
971,"Drama",4.1000,10,41.0000
973,"Comedy_Drama",3.9000,5,19.5000
976,"Romance_War",3.0000,1,3.0000
979,"Drama_War",3.0000,1,3.0000
981,"Drama",3.0000,2,6.0000
982,"Drama",3.0000,1,3.0000
984,"Comedy_Drama",3.5000,2,7.0000
986,"Adventure_Children",3.5385,13,46.0000
987,"Drama_Romance",3.0000,1,3.0000
988,"Comedy_Drama",3.0000,2,6.0000
990,"Action_Adventure_Thriller",2.9000,5,14.5000
991,"Drama",3.3182,11,36.5000
993,"Drama",3.0000,1,3.0000
994,"Comedy_Drama",4.1818,11,46.0000
996,"Action_Crime_Drama_Thriller",2.5000,13,32.5000
998,"Action_Crime",3.0000,3,9.0000
999,"Crime_Film-Noir",3.0417,12,36.5000
1003,"Drama_Thriller",2.5000,3,7.5000
1004,"Action_Thriller",3.0000,6,18.0000
1005,"Children_Comedy",2.1875,8,17.5000
1006,"Drama",3.5000,5,17.5000
1007,"Children_Comedy_Western",2.6000,10,26.0000
1008,"Adventure_Western",3.0000,1,3.0000
1009,"Adventure_Children_Fantasy",3.0556,9,27.5000
1010,"Children_Comedy",3.0556,9,27.5000
1011,"Children_Comedy_Fantasy_Romance",2.9375,8,23.5000
1012,"Children_Drama",3.4444,9,31.0000
1013,"Children_Comedy_Romance",3.2083,12,38.5000
1014,"Children_Comedy_Drama",2.9000,5,14.5000
1015,"Adventure_Children_Drama",2.9500,20,59.0000
1016,"Children_Comedy",2.9000,5,14.5000
1017,"Adventure_Children",3.5000,10,35.0000
1018,"Children_Comedy_Mystery",2.4167,6,14.5000
1019,"Adventure_Drama_Sci-Fi",3.4706,17,59.0000
1020,"Comedy",3.0811,37,114.0000
1021,"Children_Comedy",2.3333,27,63.0000
1022,"Animation_Children_Fantasy_Musical_Romance",3.4881,42,146.5000
1023,"Animation_Children_Musical",3.6154,13,47.0000
1024,"Animation_Children_Musical",3.6667,6,22.0000
1025,"Animation_Children_Fantasy_Musical",3.5800,25,89.5000
1027,"Adventure_Drama",3.0179,28,84.5000
1028,"Children_Comedy_Fantasy_Musical",3.8873,71,276.0000
1029,"Animation_Children_Drama_Musical",3.3857,35,118.5000
1030,"Adventure_Animation_Children_Musical",2.7667,15,41.5000
1031,"Adventure_Children_Musical",3.4792,24,83.5000
1032,"Adventure_Animation_Children_Fantasy_Musical",3.3750,40,135.0000
1033,"Animation_Children_Drama",3.5750,20,71.5000
1034,"Comedy_Crime_Drama_Thriller",3.1000,5,15.5000
1035,"Musical_Romance",3.9375,64,252.0000
1036,"Action_Crime_Thriller",3.8621,145,560.0000
1037,"Action_Horror_Sci-Fi_Thriller",2.7708,24,66.5000
1040,"Drama",3.0000,1,3.0000
1041,"Drama",4.5909,11,50.5000
1042,"Comedy_Drama",3.2738,42,137.5000
1043,"Drama_Romance",2.4000,5,12.0000
1046,"Drama_Romance",4.5000,4,18.0000
1047,"Action_Drama_Thriller",3.3182,33,109.5000
1049,"Action_Adventure",3.4762,21,73.0000
1050,"Documentary_Drama",3.9000,5,19.5000
1051,"Drama",4.0000,3,12.0000
1053,"Crime_Drama_Romance",3.0000,1,3.0000
1054,"Drama",2.0000,1,2.0000
1055,"Thriller",1.5000,2,3.0000
1056,"Drama",3.0714,7,21.5000
1057,"Comedy_Musical_Romance",3.4667,15,52.0000
1059,"Drama_Romance",3.7222,36,134.0000
1060,"Comedy_Drama",3.6944,36,133.0000
1061,"Thriller",3.6724,29,106.5000
1064,"Animation_Children_Comedy_Fantasy_Musical_Romance",3.1538,13,41.0000
1066,"Comedy_Musical_Romance",4.5000,4,18.0000
1068,"Crime_Film-Noir",3.5000,1,3.5000
1073,"Children_Comedy_Fantasy_Musical",3.8739,119,461.0000
1077,"Comedy_Sci-Fi",3.7500,28,105.0000
1078,"Comedy_War",3.4091,11,37.5000
1079,"Comedy_Crime",3.9225,71,278.5000
1080,"Comedy",3.9270,89,349.5000
1081,"Comedy_Musical_Romance",3.5417,12,42.5000
1082,"Drama",3.5833,6,21.5000
1083,"Comedy_Musical",3.3333,6,20.0000
1084,"Crime_Drama",4.0714,35,142.5000
1085,"Adventure_Drama",3.5000,2,7.0000
1086,"Crime_Mystery_Thriller",4.1000,25,102.5000
1088,"Drama_Musical_Romance",3.3690,42,141.5000
1089,"Crime_Mystery_Thriller",4.2023,131,550.5000
1090,"Drama_War",3.9841,63,251.0000
1091,"Comedy",2.5476,21,53.5000
1092,"Crime_Mystery_Thriller",3.1915,47,150.0000
1093,"Drama",3.4054,37,126.0000
1094,"Drama_Romance_Thriller",3.4405,42,144.5000
1095,"Drama",3.6667,15,55.0000
1096,"Drama",4.0500,10,40.5000
1097,"Children_Drama_Sci-Fi",3.7664,122,459.5000
1099,"Children_Drama_Fantasy",3.3750,4,13.5000
1100,"Action_Drama_Romance",2.7105,19,51.5000
1101,"Action_Romance",3.3012,83,274.0000
1103,"Drama",4.1000,15,61.5000
1104,"Drama",4.4750,20,89.5000
1105,"Horror",4.6667,3,14.0000
1107,"Comedy",2.0000,2,4.0000
1111,"Documentary",4.1250,4,16.5000
1112,"Action_Comedy_Drama",4.5000,2,9.0000
1114,"Crime_Drama",3.0000,1,3.0000
1116,"Drama",4.0000,1,4.0000
1117,"Drama",3.5000,1,3.5000
1119,"Drama",3.0000,1,3.0000
1120,"Comedy_Drama",3.5370,27,95.5000
1121,"Drama",4.0000,1,4.0000
1123,"Documentary",4.2500,2,8.5000
1124,"Drama",3.6538,13,47.5000
1125,"Comedy_Crime",3.6875,24,88.5000
1126,"Comedy_Fantasy",2.8333,6,17.0000
1127,"Action_Adventure_Sci-Fi_Thriller",3.4758,62,215.5000
1128,"Horror",2.5000,5,12.5000
1129,"Action_Adventure_Sci-Fi_Thriller",3.4487,39,134.5000
1130,"Horror_Mystery",2.9000,5,14.5000
1131,"Drama_Mystery",4.0909,11,45.0000
1132,"Drama",4.0625,8,32.5000
1135,"Comedy",3.1154,13,40.5000
1136,"Adventure_Comedy_Fantasy",4.1618,136,566.0000
1137,"Romance",4.0000,1,4.0000
1140,"Drama",5.0000,1,5.0000
1144,"Documentary",4.0000,1,4.0000
1147,"Documentary",3.9000,10,39.0000
1148,"Animation_Children_Comedy_Crime",4.0357,56,226.0000
1150,"Drama",4.3333,3,13.0000
1151,"Animation_Comedy_Drama_Fantasy",5.0000,2,10.0000
1156,"Drama",3.5000,1,3.5000
1161,"Drama_War",3.6667,3,11.0000
1162,"Comedy_Drama",3.0000,1,3.0000
1163,"Drama",1.0000,1,1.0000
1167,"Comedy",3.5000,2,7.0000
1170,"Action",2.5000,2,5.0000
1171,"Comedy",3.3529,17,57.0000
1172,"Drama",4.1618,34,141.5000
1173,"Comedy_Drama",3.1364,11,34.5000
1175,"Comedy_Drama_Romance",3.8333,21,80.5000
1176,"Drama_Fantasy_Romance",4.0000,3,12.0000
1177,"Drama_Romance",4.0000,6,24.0000
1178,"Drama_War",4.5417,12,54.5000
1179,"Crime_Drama_Film-Noir",3.6296,27,98.0000
1180,"Comedy",3.0000,1,3.0000
1183,"Drama_Romance_War",3.7111,45,167.0000
1184,"Comedy_Drama",3.9286,7,27.5000
1185,"Drama",3.9500,10,39.5000
1186,"Drama",3.5870,23,82.5000
1187,"Drama",3.6000,5,18.0000
1188,"Comedy_Romance",3.6591,22,80.5000
1189,"Documentary",4.0000,11,44.0000
1190,"Crime_Drama_Romance",3.1667,6,19.0000
1191,"Documentary_Musical",3.5000,6,21.0000
1192,"Documentary",4.5000,5,22.5000
1193,"Drama",4.2030,133,559.0000
1194,"Comedy",3.5909,11,39.5000
1196,"Action_Adventure_Sci-Fi",4.2156,211,889.5000
1197,"Action_Adventure_Comedy_Fantasy_Romance",4.2324,142,601.0000
1198,"Action_Adventure",4.2075,200,841.5000
1199,"Fantasy_Sci-Fi",4.1780,59,246.5000
1200,"Action_Adventure_Horror_Sci-Fi",3.9643,126,499.5000
1201,"Action_Adventure_Western",4.1458,72,298.5000
1202,"Comedy",3.8571,7,27.0000
1203,"Drama",4.1491,57,236.5000
1204,"Adventure_Drama_War",4.3000,45,193.5000
1206,"Crime_Drama_Sci-Fi_Thriller",3.9958,120,479.5000
1207,"Drama",4.1207,58,239.0000
1208,"Action_Drama_War",4.2196,107,451.5000
1209,"Action_Drama_Western",4.3056,18,77.5000
1210,"Action_Adventure_Sci-Fi",4.1378,196,811.0000
1211,"Drama_Fantasy_Romance",3.8846,13,50.5000
1212,"Film-Noir_Mystery_Thriller",4.2292,24,101.5000
1213,"Crime_Drama",4.2500,126,535.5000
1214,"Horror_Sci-Fi",3.9692,146,579.5000
1215,"Action_Adventure_Comedy_Fantasy_Horror",4.0392,51,206.0000
1216,"Adventure_Drama_Romance",3.4545,11,38.0000
1217,"Drama_War",4.4333,15,66.5000
1218,"Action_Crime_Drama_Thriller",4.0000,11,44.0000
1219,"Crime_Horror",4.0361,83,335.0000
1220,"Action_Comedy_Musical",3.8095,84,320.0000
1221,"Crime_Drama",4.2597,129,549.5000
1222,"Drama_War",4.0980,102,418.0000
1223,"Adventure_Animation_Children_Comedy_Sci-Fi",4.0893,28,114.5000
1224,"Action_Drama_Romance_War",4.0000,19,76.0000
1225,"Drama",4.1842,76,318.0000
1226,"Drama_Romance",3.5000,6,21.0000
1227,"Crime_Drama",4.0625,16,65.0000
1228,"Drama",4.1875,40,167.5000
1230,"Comedy_Romance",3.8707,58,224.5000
1231,"Drama",3.8636,22,85.0000
1232,"Drama_Mystery_Sci-Fi",3.6250,8,29.0000
1233,"Action_Drama_War",4.2125,40,168.5000
1234,"Comedy_Crime",3.9766,64,254.5000
1235,"Comedy_Drama_Romance",4.2885,26,111.5000
1236,"Comedy_Drama_Romance",4.3333,3,13.0000
1237,"Drama",4.2222,18,76.0000
1238,"Comedy",4.0556,9,36.5000
1240,"Action_Sci-Fi_Thriller",3.8969,131,510.5000
1241,"Comedy_Fantasy_Horror",4.0500,10,40.5000
1242,"Drama_War",4.1707,41,171.0000
1243,"Comedy_Drama",3.9688,16,63.5000
1244,"Comedy_Drama_Romance",4.1061,33,135.5000
1245,"Crime_Drama_Film-Noir_Thriller",4.2250,20,84.5000
1246,"Drama",3.9593,86,340.5000
1247,"Comedy_Drama_Romance",4.0633,79,321.0000
1248,"Crime_Film-Noir_Thriller",4.2647,17,72.5000
1249,"Action_Crime_Romance_Thriller",4.0714,35,142.5000
1250,"Adventure_Drama_War",4.1222,45,185.5000
1251,"Drama_Fantasy",4.0714,14,57.0000
1252,"Crime_Film-Noir_Mystery_Thriller",4.2119,59,248.5000
1253,"Drama_Sci-Fi_Thriller",3.8200,25,95.5000
1254,"Action_Adventure_Drama_Western",3.6562,16,58.5000
1255,"Comedy_Horror_Sci-Fi",3.0000,6,18.0000
1256,"Comedy_Musical_War",3.8043,23,87.5000
1257,"Comedy_Romance",3.6852,27,99.5000
1258,"Horror",4.0826,109,445.0000
1259,"Adventure_Drama",4.0055,91,364.5000
1260,"Crime_Film-Noir_Thriller",3.7333,15,56.0000
1261,"Action_Comedy_Fantasy_Horror",4.0441,34,137.5000
1262,"Action_Adventure_Drama_War",4.1279,43,177.5000
1263,"Drama_War",3.8256,43,164.5000
1264,"Action_Drama_Mystery_Romance_Thriller",3.8000,5,19.0000
1265,"Comedy_Fantasy_Romance",3.9441,143,564.0000
1266,"Drama_Western",4.1111,45,185.0000
1267,"Crime_Thriller_War",4.2500,30,127.5000
1268,"Comedy_Drama",3.6111,9,32.5000
1269,"Comedy_Mystery_Thriller",3.8793,29,112.5000
1270,"Adventure_Comedy_Sci-Fi",4.0380,171,690.5000
1271,"Comedy_Crime_Drama",3.5000,30,105.0000
1272,"Drama_War",4.1212,33,136.0000
1273,"Comedy_Drama_Film-Noir",4.0455,11,44.5000
1274,"Action_Adventure_Animation_Sci-Fi",3.7436,39,146.0000
1275,"Action_Adventure_Fantasy",3.7292,48,179.0000
1276,"Drama",4.2719,57,243.5000
1277,"Comedy_Drama_Romance",4.1250,12,49.5000
1278,"Comedy_Fantasy",3.9928,69,275.5000
1279,"Comedy_Drama",4.1250,8,33.0000
1280,"Drama",4.3333,9,39.0000
1281,"Comedy_Drama_War",4.1333,15,62.0000
1282,"Animation_Children_Fantasy_Musical",3.7830,53,200.5000
1283,"Drama_Western",4.2105,19,80.0000
1284,"Crime_Film-Noir_Mystery",4.1429,14,58.0000
1285,"Comedy",3.7317,41,153.0000
1286,"Drama_Romance",3.0714,7,21.5000
1287,"Action_Adventure_Drama",3.9412,34,134.0000
1288,"Comedy",4.0152,66,265.0000
1289,"Documentary",3.8636,11,42.5000
1290,"Drama_Romance",3.3500,10,33.5000
1291,"Action_Adventure",4.0464,140,566.5000
1292,"Comedy_Drama",3.9500,20,79.0000
1293,"Drama",3.8333,27,103.5000
1295,"Drama",3.2273,11,35.5000
1296,"Drama_Romance",3.7059,17,63.0000
1297,"Comedy",3.6750,20,73.5000
1298,"Drama_Musical",3.7609,23,86.5000
1299,"Drama_War",4.0179,28,112.5000
1300,"Comedy_Drama",4.1667,9,37.5000
1301,"Drama_Sci-Fi",3.8077,13,49.5000
1302,"Children_Drama_Fantasy",3.5179,56,197.0000
1303,"Adventure_Drama",4.0294,17,68.5000
1304,"Action_Western",3.9435,62,244.5000
1305,"Drama_Romance",3.5000,4,14.0000
1306,"Adventure_Drama_Sci-Fi",2.7000,5,13.5000
1307,"Comedy_Romance",3.8588,85,328.0000
1310,"Documentary",5.0000,1,5.0000
1312,"Drama",2.5000,2,5.0000
1318,"Comedy_Drama",2.0000,1,2.0000
1320,"Action_Horror_Sci-Fi_Thriller",3.1489,47,148.0000
1321,"Comedy_Horror_Thriller",3.4130,23,78.5000
1322,"Horror",1.5000,3,4.5000
1323,"Horror",1.6667,3,5.0000
1324,"Horror",1.1667,3,3.5000
1325,"Horror",1.2500,2,2.5000
1326,"Horror",1.1250,4,4.5000
1327,"Drama_Horror_Mystery_Thriller",2.6333,15,39.5000
1328,"Horror",0.7500,2,1.5000
1329,"Horror",2.7500,2,5.5000
1330,"Horror",1.5000,4,6.0000
1331,"Horror",2.0000,1,2.0000
1332,"Horror_Thriller",3.6667,3,11.0000
1333,"Horror_Thriller",3.6023,44,158.5000
1334,"Horror_Sci-Fi",3.0000,6,18.0000
1335,"Horror_Mystery",1.0000,1,1.0000
1336,"Horror_Thriller",1.0000,1,1.0000
1337,"Drama_Horror_Thriller",4.5000,1,4.5000
1339,"Fantasy_Horror_Romance_Thriller",3.4655,29,100.5000
1340,"Drama_Horror_Sci-Fi",3.1667,3,9.5000
1341,"Horror",3.7500,2,7.5000
1342,"Horror_Thriller",2.5000,11,27.5000
1343,"Thriller",3.7800,25,94.5000
1344,"Crime_Drama_Thriller",3.9643,14,55.5000
1345,"Drama_Fantasy_Horror_Thriller",3.3472,36,120.5000
1346,"Drama_Fantasy_Horror",2.8125,8,22.5000
1347,"Horror_Thriller",3.0000,27,81.0000
1348,"Horror",3.5312,16,56.5000
1349,"Horror",5.0000,1,5.0000
1350,"Horror_Mystery_Thriller",3.8182,22,84.0000
1351,"Crime_Drama_Thriller",2.3333,3,7.0000
1352,"Crime_Thriller",2.2500,2,4.5000
1353,"Comedy_Drama_Romance",3.3750,4,13.5000
1354,"Drama_Mystery",4.0714,7,28.5000
1355,"Horror_Thriller",2.0000,3,6.0000
1356,"Action_Adventure_Sci-Fi_Thriller",3.8791,91,353.0000
1357,"Drama_Romance",4.0000,24,96.0000
1358,"Drama",3.8404,47,180.5000
1359,"Children_Comedy",2.8611,18,51.5000
1361,"Documentary",4.0833,6,24.5000
1363,"Drama",3.5000,5,17.5000
1365,"Drama",3.5833,6,21.5000
1366,"Drama",3.9000,5,19.5000
1367,"Adventure_Children_Comedy",3.0745,47,144.5000
1370,"Action_Adventure_Thriller",3.4044,68,231.5000
1371,"Adventure_Sci-Fi",3.0444,45,137.0000
1372,"Action_Mystery_Sci-Fi",3.3452,42,140.5000
1373,"Action_Sci-Fi",2.6667,30,80.0000
1374,"Action_Adventure_Sci-Fi_Thriller",3.7661,62,233.5000
1375,"Action_Adventure_Sci-Fi",3.2619,42,137.0000
1376,"Adventure_Comedy_Sci-Fi",3.4767,43,149.5000
1377,"Action_Crime",3.0250,60,181.5000
1378,"Action_Comedy_Western",3.1000,25,77.5000
1379,"Action_Western",3.0000,11,33.0000
1380,"Comedy_Musical_Romance",3.1397,68,213.5000
1381,"Comedy_Musical_Romance",2.0789,19,39.5000
1382,"Action_Drama",1.8750,4,7.5000
1385,"Action_Drama_Thriller",2.8542,24,68.5000
1387,"Action_Horror",4.0055,91,364.5000
1388,"Horror_Thriller",2.6176,17,44.5000
1389,"Action_Horror",1.4167,6,8.5000
1390,"Comedy",2.6667,9,24.0000
1391,"Action_Comedy_Sci-Fi",3.0930,86,266.0000
1392,"Comedy_Drama",4.1250,4,16.5000
1393,"Drama_Romance",3.5941,85,305.5000
1394,"Comedy",3.9914,58,231.5000
1395,"Comedy_Drama",3.0000,5,15.0000
1396,"Action_Comedy_Crime_Drama_Sci-Fi",3.4783,46,160.0000
1397,"Drama",4.0000,2,8.0000
1398,"Romance_War",2.5000,1,2.5000
1399,"Drama",3.1000,5,15.5000
1401,"Drama",3.3333,3,10.0000
1405,"Adventure_Animation_Comedy_Crime",2.9355,31,91.0000
1406,"Crime_Drama_Mystery_Thriller",4.5000,2,9.0000
1407,"Comedy_Horror_Mystery_Thriller",3.2000,70,224.0000
1408,"Action_Romance_War_Western",3.8333,39,149.5000
1409,"Comedy_Drama_Fantasy_Romance",2.5000,23,57.5000
1411,"Crime_Drama_Romance",4.0000,16,64.0000
1412,"Drama",3.5000,1,3.5000
1413,"Drama",4.2500,2,8.5000
1414,"Comedy",3.0000,8,24.0000
1415,"Crime_Drama_Romance",2.5000,2,5.0000
1416,"Drama_Musical",3.4167,12,41.0000
1417,"Drama",3.2500,2,6.5000
1419,"Adventure_Drama",4.2500,2,8.5000
1422,"Crime_Drama_Mystery_Thriller",2.7500,4,11.0000
1423,"Drama",4.0000,1,4.0000
1425,"Comedy",3.0000,8,24.0000
1426,"Children",1.0000,1,1.0000
1427,"Action_Thriller",1.0000,1,1.0000
1428,"Drama",3.0000,2,6.0000
1429,"Action_Adventure_Comedy_Thriller",3.5750,20,71.5000
1430,"Comedy_Thriller",3.0000,3,9.0000
1431,"Action_Comedy",2.4688,16,39.5000
1432,"Action_Comedy_Crime_Drama_Thriller",2.7143,7,19.0000
1437,"Drama",4.2500,2,8.5000
1438,"Action_Thriller",2.6250,24,63.0000
1439,"Comedy",2.1667,3,6.5000
1440,"Comedy",1.5000,2,3.0000
1441,"Comedy_Romance",3.4737,19,66.0000
1442,"Drama",3.5000,5,17.5000
1445,"Comedy_War",2.1429,7,15.0000
1446,"Comedy_Drama",4.4286,7,31.0000
1447,"Crime",3.3750,4,13.5000
1449,"Comedy",3.8750,24,93.0000
1453,"Comedy_Romance",1.8333,3,5.5000
1454,"Comedy_Drama",3.7500,6,22.5000
1456,"Comedy",2.0000,1,2.0000
1457,"Comedy_Drama_Romance",3.0833,12,37.0000
1458,"Drama_Fantasy_Romance",4.0000,1,4.0000
1459,"Mystery_Thriller",2.6667,12,32.0000
1460,"Children_Comedy_Mystery",3.2500,2,6.5000
1461,"Comedy",2.3125,8,18.5000
1464,"Crime_Drama_Fantasy_Film-Noir_Mystery_Romance",3.2647,17,55.5000
1465,"Action_Drama",3.3333,3,10.0000
1466,"Crime_Drama",3.7404,52,194.5000
1468,"Comedy_Romance",2.6000,5,13.0000
1473,"Action_Comedy_Crime_Drama",4.0000,1,4.0000
1474,"Children_Comedy",2.1364,11,23.5000
1475,"Romance",4.0000,1,4.0000
1476,"Comedy_Drama",3.5385,26,92.0000
1477,"Romance",4.0000,1,4.0000
1479,"Action_Romance_Sci-Fi_Thriller",3.2167,30,96.5000
1480,"Drama_Thriller",3.3636,11,37.0000
1483,"Drama_Thriller",3.0909,11,34.0000
1484,"Comedy_Drama_Mystery_Romance",3.6667,3,11.0000
1485,"Comedy",3.0338,74,224.5000
1487,"Drama_Musical",3.0000,5,15.0000
1488,"Action_Drama_Thriller",2.8333,15,42.5000
1489,"Animation_Children_Musical",3.0000,2,6.0000
1490,"Comedy",1.5000,2,3.0000
1493,"Romance",3.5000,1,3.5000
1495,"Action_Adventure_Children",2.0000,2,4.0000
1496,"Drama_Romance",4.0000,1,4.0000
1497,"Action",4.0000,3,12.0000
1498,"Drama_Romance",3.0000,5,15.0000
1499,"Action_Adventure_Thriller",1.9259,27,52.0000
1500,"Comedy_Crime_Romance",3.6102,59,213.0000
1502,"Drama_Romance",2.5000,2,5.0000
1503,"Comedy",3.0000,4,12.0000
1507,"Drama_War",3.5000,1,3.5000
1513,"Comedy",2.9655,29,86.0000
1514,"Romance",3.0000,1,3.0000
1515,"Action_Drama_Thriller",2.1000,15,31.5000
1516,"Comedy",3.0000,1,3.0000
1517,"Action_Adventure_Comedy",3.5350,100,353.5000
1518,"Action_Thriller",3.3462,13,43.5000
1519,"Drama",1.0000,1,1.0000
1526,"Comedy",1.0000,3,3.0000
1527,"Action_Adventure_Comedy_Sci-Fi",3.7457,116,434.5000
1529,"Comedy_Drama",3.3333,3,10.0000
1533,"Drama",4.5000,2,9.0000
1537,"Comedy_Drama_Romance",3.8077,13,49.5000
1541,"Comedy_Romance",2.7000,10,27.0000
1542,"Comedy_Drama_Romance",3.7143,7,26.0000
1544,"Action_Adventure_Sci-Fi_Thriller",2.7537,67,184.5000
1545,"Drama",4.5000,2,9.0000
1546,"Comedy",3.5000,1,3.5000
1547,"Children_Drama",3.2500,2,6.5000
1549,"Drama_Romance",4.0000,1,4.0000
1550,"Comedy_Romance",2.2500,4,9.0000
1551,"Adventure_Children_Drama",2.1667,3,6.5000
1552,"Action_Adventure_Thriller",3.0339,59,179.0000
1554,"Drama_Romance",2.4000,5,12.0000
1556,"Action_Romance_Thriller",1.6053,19,30.5000
1562,"Action_Adventure_Fantasy_Thriller",2.2143,42,93.0000
1564,"Comedy_Drama_Romance",4.0000,2,8.0000
1565,"Comedy_Thriller",4.0000,1,4.0000
1566,"Adventure_Animation_Children_Comedy_Musical",3.4516,31,107.0000
1569,"Comedy_Romance",3.5000,40,140.0000
1571,"Comedy_Romance",4.5000,2,9.0000
1572,"Drama",3.0000,2,6.0000
1573,"Action_Crime_Drama_Thriller",3.3701,77,259.5000
1574,"Romance",1.0000,1,1.0000
1580,"Action_Comedy_Sci-Fi",3.4879,165,575.5000
1581,"Comedy",2.1667,3,6.5000
1582,"Adventure_Children",2.6000,5,13.0000
1583,"Children_Fantasy",3.0000,2,6.0000
1584,"Drama_Sci-Fi",3.6524,82,299.5000
1585,"Comedy",3.0000,1,3.0000
1586,"Action_Drama",2.7955,22,61.5000
1587,"Action_Adventure_Fantasy",3.2581,31,101.0000
1588,"Children_Comedy",3.0750,20,61.5000
1589,"Action_Crime_Drama_Thriller",3.2812,16,52.5000
1590,"Horror_Sci-Fi_Thriller",2.9400,25,73.5000
1591,"Action_Adventure_Sci-Fi_Thriller",2.6346,26,68.5000
1592,"Children_Comedy",2.3750,4,9.5000
1593,"Comedy_Romance",2.8333,6,17.0000
1594,"Comedy_Drama",4.0833,6,24.5000
1596,"Drama",4.3333,3,13.0000
1597,"Drama_Mystery_Romance_Thriller",2.9419,43,126.5000
1598,"Crime_Drama_Thriller",2.5000,4,10.0000
1599,"Action",2.3333,3,7.0000
1600,"Drama_Romance",3.5000,2,7.0000
1601,"Crime_Drama_Film-Noir",2.3333,3,7.0000
1602,"Comedy",1.7500,4,7.0000
1603,"Horror_Sci-Fi_Thriller",2.4615,13,32.0000
1604,"Action_Comedy",3.3333,3,10.0000
1605,"Adventure_Romance",2.7500,4,11.0000
1606,"Action_Adventure",2.3333,3,7.0000
1608,"Action_Thriller",3.3448,58,194.0000
1609,"Drama_Thriller",2.6667,3,8.0000
1610,"Action_Adventure_Thriller",3.8722,90,348.5000
1611,"Drama_Romance",4.1000,5,20.5000
1612,"Comedy",3.0000,2,6.0000
1613,"Drama",4.0000,1,4.0000
1614,"Comedy",2.7885,26,72.5000
1615,"Adventure_Drama",3.0000,11,33.0000
1616,"Action_Thriller_War",3.0250,20,60.5000
1617,"Crime_Film-Noir_Mystery_Thriller",4.0619,97,394.0000
1619,"Adventure_Drama_War",3.4286,14,48.0000
1620,"Crime_Drama_Mystery_Thriller",3.1154,13,40.5000
1621,"Drama",3.2500,2,6.5000
1623,"Horror",2.2500,2,4.5000
1624,"Drama",1.7500,2,3.5000
1625,"Drama_Mystery_Thriller",3.7013,77,285.0000
1626,"Action_Drama_Thriller",2.6667,3,8.0000
1627,"Crime_Drama_Mystery",3.3571,7,23.5000
1629,"Comedy_Romance",3.3333,3,10.0000
1631,"Action_Thriller",5.0000,1,5.0000
1633,"Drama",4.0000,5,20.0000
1635,"Drama",3.8824,17,66.0000
1639,"Comedy_Drama_Romance",3.5769,52,186.0000
1641,"Comedy_Drama",3.7589,56,210.5000
1642,"Comedy_Drama",1.7500,2,3.5000
1643,"Drama_Romance",3.8000,5,19.0000
1644,"Horror_Mystery_Thriller",2.1094,32,67.5000
1645,"Drama_Mystery_Thriller",3.4118,51,174.0000
1646,"Children_Comedy_Romance_Sci-Fi",2.1429,7,15.0000
1647,"Crime_Drama_Thriller",2.5000,3,7.5000
1648,"Comedy_Drama",3.5000,4,14.0000
1649,"Documentary",2.5000,3,7.5000
1650,"Drama",3.7500,2,7.5000
1652,"Documentary",4.5000,1,4.5000
1653,"Drama_Sci-Fi_Thriller",3.9535,86,340.0000
1654,"Children_Drama_Fantasy",3.5000,1,3.5000
1655,"Drama_Horror_Thriller",4.0000,1,4.0000
1656,"Drama_Romance",4.0000,1,4.0000
1658,"Romance_Thriller",3.0625,8,24.5000
1659,"Drama",4.0000,1,4.0000
1660,"Drama",3.0000,1,3.0000
1661,"Crime_Mystery_Thriller",3.0000,1,3.0000
1662,"Crime",3.0000,2,6.0000
1663,"Comedy_War",3.7941,34,129.0000
1665,"Comedy",2.9688,16,47.5000
1667,"Action_Drama",2.1000,5,10.5000
1670,"Drama_War",3.0000,3,9.0000
1671,"Crime_Drama_Thriller",3.0000,1,3.0000
1672,"Drama",3.3750,12,40.5000
1673,"Drama",4.0769,39,159.0000
1674,"Drama_Romance_Thriller",3.6500,40,146.0000
1675,"Crime_Thriller",3.5000,1,3.5000
1676,"Action_Sci-Fi",3.3312,80,266.5000
1677,"Comedy_Drama",2.0000,1,2.0000
1678,"Drama_Romance",3.5000,10,35.0000
1679,"Comedy",2.0000,1,2.0000
1680,"Drama_Romance",3.6000,25,90.0000
1681,"Action_Adventure_Fantasy",1.9286,7,13.5000
1682,"Comedy_Drama_Sci-Fi",3.8120,125,476.5000
1683,"Drama_Romance",4.4167,6,26.5000
1684,"Drama_Romance",3.5000,4,14.0000
1685,"Drama_Romance",3.0000,1,3.0000
1686,"Crime_Thriller",3.6667,3,11.0000
1687,"Action_Thriller",3.2222,18,58.0000
1688,"Adventure_Animation_Children_Drama_Musical",3.3500,20,67.0000
1689,"Comedy_Crime_Thriller",2.2143,7,15.5000
1690,"Action_Horror_Sci-Fi",2.9222,45,131.5000
1693,"Drama_Mystery",3.5000,19,66.5000
1694,"Drama",3.0000,7,21.0000
1695,"Drama",4.0000,2,8.0000
1696,"Drama_War",3.5000,2,7.0000
1699,"Comedy_Drama",4.0000,2,8.0000
1701,"Comedy_Drama",3.8750,8,31.0000
1702,"Children_Comedy_Fantasy",3.0000,16,48.0000
1703,"Comedy",2.9000,5,14.5000
1704,"Drama_Romance",4.0780,141,575.0000
1707,"Children_Comedy",1.8750,8,15.0000
1711,"Crime_Drama_Mystery",3.1042,24,74.5000
1713,"Children_Comedy",3.0714,7,21.5000
1717,"Comedy_Horror_Mystery_Thriller",2.9194,31,90.5000
1718,"Thriller",3.2500,2,6.5000
1719,"Drama",4.2500,16,68.0000
1721,"Drama_Romance",3.4143,140,478.0000
1722,"Action_Adventure_Thriller",3.0667,45,138.0000
1726,"Action_Adventure_Drama_Sci-Fi",2.6923,13,35.0000
1727,"Drama_Romance",3.7500,4,15.0000
1729,"Crime_Drama_Thriller",3.6979,48,177.5000
1730,"Drama",3.2500,4,13.0000
1731,"Comedy",1.7500,4,7.0000
1732,"Comedy_Crime",3.9245,106,416.0000
1733,"Drama_Romance",4.5000,4,18.0000
1734,"Comedy_Drama",4.0556,9,36.5000
1735,"Drama_Romance",3.3182,11,36.5000
1739,"Action_Children_Comedy",4.0000,1,4.0000
1746,"Comedy",2.0000,1,2.0000
1747,"Comedy",3.3387,31,103.5000
1748,"Adventure_Film-Noir_Sci-Fi_Thriller",3.8229,48,183.5000
1752,"Action_Crime_Thriller",2.5000,4,10.0000
1753,"Comedy",3.5938,16,57.5000
1754,"Crime_Drama_Fantasy_Thriller",3.5000,15,52.5000
1755,"Comedy_Romance",4.1000,5,20.5000
1757,"Drama_Romance",2.0000,1,2.0000
1759,"Drama",5.0000,1,5.0000
1760,"Comedy",1.3500,10,13.5000
1762,"Action_Horror_Sci-Fi",2.3000,5,11.5000
1767,"Drama_Romance",3.0000,2,6.0000
1769,"Action_Crime_Thriller",2.9286,14,41.0000
1770,"Crime_Romance_Thriller",2.5000,2,5.0000
1771,"Horror",4.0000,1,4.0000
1772,"Action_Comedy_Musical",2.7083,12,32.5000
1777,"Comedy_Romance",3.4196,56,191.5000
1779,"Sci-Fi_Thriller",2.7609,23,63.5000
1783,"Crime_Drama_Mystery_Romance_Thriller",2.8000,5,14.0000
1784,"Comedy_Drama_Romance",3.6979,96,355.0000
1785,"Crime_Thriller",3.9000,5,19.5000
1791,"Crime_Drama_Thriller",2.3333,3,7.0000
1792,"Action_Crime_Thriller",3.0217,23,69.5000
1793,"Comedy",4.0000,2,8.0000
1794,"Comedy_Drama",3.0000,1,3.0000
1797,"Documentary_IMAX",4.2500,6,25.5000
1798,"Thriller",2.0000,2,4.0000
1799,"Comedy_Crime_Drama_Mystery_Thriller",3.4231,13,44.5000
1801,"Action_Adventure_Drama",3.5000,25,87.5000
1804,"Crime_Drama",3.0000,3,9.0000
1805,"Crime_Drama_Mystery_Thriller",3.0161,31,93.5000
1806,"Adventure_Children_Comedy",2.3125,8,18.5000
1807,"Drama",3.0000,1,3.0000
1809,"Crime_Drama",4.0000,6,24.0000
1810,"Comedy_Drama",3.5000,11,38.5000
1812,"Children_Comedy_Drama",3.6667,3,11.0000
1816,"Comedy_Drama",2.0000,3,6.0000
1821,"Comedy_Romance",2.6667,6,16.0000
1824,"Comedy_Thriller",1.0000,1,1.0000
1825,"Comedy_Drama",3.5000,1,3.5000
1826,"Adventure_Children",2.0000,1,2.0000
1827,"Comedy_Documentary",3.3333,3,10.0000
1829,"Drama_Romance",3.2500,2,6.5000
1831,"Action_Adventure_Sci-Fi",2.4483,29,71.0000
1833,"Action_Drama_Thriller",3.0000,13,39.0000
1834,"Crime_Drama_Mystery_Thriller",4.0000,11,44.0000
1835,"Drama_Fantasy_Romance",3.3824,17,57.5000
1836,"Comedy_Drama",4.5000,3,13.5000
1837,"Comedy",2.2500,4,9.0000
1839,"Comedy",3.0000,1,3.0000
1840,"Drama",3.2143,7,22.5000
1841,"Drama_Thriller",3.0000,1,3.0000
1844,"Drama_Romance",3.8750,4,15.5000
1845,"Comedy_Mystery_Thriller",3.9667,15,59.5000
1848,"Adventure_Children_Comedy_Fantasy",3.0417,12,36.5000
1855,"Comedy",2.5714,7,18.0000
1856,"Documentary",4.0000,3,12.0000
1857,"Comedy",3.5000,1,3.5000
1858,"Action_Comedy",2.5625,8,20.5000
1859,"Drama",3.6667,3,11.0000
1860,"Drama",2.6250,4,10.5000
1862,"Horror_Sci-Fi",1.9444,9,17.5000
1863,"Comedy",2.4286,7,17.0000
1866,"Action_Comedy_Crime",2.9286,7,20.5000
1867,"Action_Adventure",2.0000,1,2.0000
1870,"Comedy_Drama",3.0000,1,3.0000
1873,"Crime_Drama_Romance_War",3.7500,10,37.5000
1875,"Comedy",3.9167,6,23.5000
1876,"Drama_Sci-Fi_Thriller",3.0698,43,132.0000
1881,"Adventure_Animation_Children_Fantasy_Musical",2.0000,2,4.0000
1882,"Action_Sci-Fi_Thriller",1.9545,33,64.5000
1883,"Comedy_Drama_Romance",3.2708,24,78.5000
1884,"Adventure_Comedy_Drama",3.9674,46,182.5000
1885,"Comedy_Drama_Romance",3.1250,12,37.5000
1887,"Adventure_Comedy_Western",2.0000,2,4.0000
1888,"Comedy_Drama_Romance",2.6667,3,8.0000
1889,"Drama_Mystery_Thriller",3.7500,8,30.0000
1891,"Horror_Thriller",2.0000,1,2.0000
1892,"Thriller",3.2812,16,52.5000
1893,"Drama",4.5000,1,4.5000
1894,"Adventure_Comedy_Romance",2.8438,16,45.5000
1895,"Comedy_Drama_Romance",3.3333,15,50.0000
1897,"Drama_Romance",3.5000,2,7.0000
1900,"Comedy_Drama",4.0000,1,4.0000
1902,"Drama_Romance",4.0000,1,4.0000
1904,"Comedy_Drama",3.3333,3,10.0000
1906,"Comedy_Romance",2.5000,2,5.0000
1907,"Adventure_Animation_Children_Comedy_Drama_Musical_Romance",3.5667,45,160.5000
1909,"Action_Crime_Mystery_Sci-Fi_Thriller",3.4405,42,144.5000
1910,"Comedy_Crime_Drama",2.0000,2,4.0000
1911,"Comedy",2.6094,32,83.5000
1912,"Comedy_Crime_Drama_Romance_Thriller",3.8594,32,123.5000
1913,"Drama_Mystery",4.0000,3,12.0000
1914,"Comedy_Drama",3.3889,9,30.5000
1916,"Drama_Romance",3.4167,12,41.0000
1917,"Action_Romance_Sci-Fi_Thriller",3.0543,92,281.0000
1918,"Action_Comedy_Crime_Thriller",2.8485,33,94.0000
1919,"Children_Comedy",2.5000,5,12.5000
1920,"Animation_Children_Fantasy_War",2.8333,18,51.0000
1921,"Drama_Sci-Fi_Thriller",3.8511,47,181.0000
1922,"Drama",3.5000,2,7.0000
1923,"Comedy_Romance",3.6762,105,386.0000
1924,"Horror_Sci-Fi",3.1875,8,25.5000
1926,"Musical",3.0000,1,3.0000
1927,"Action_Drama_War",4.3500,10,43.5000
1928,"Drama_Western",3.5000,1,3.5000
1929,"Drama_Romance",4.0000,2,8.0000
1931,"Adventure_Drama",4.1667,6,25.0000
1932,"Drama_Musical",3.5000,1,3.5000
1933,"Drama",3.0000,1,3.0000
1934,"Comedy_Romance",3.8333,3,11.5000
1936,"Drama_War",4.0000,3,12.0000
1937,"Comedy_Drama_Musical",3.2500,2,6.5000
1938,"Drama",4.0000,3,12.0000
1939,"Drama_War",4.0625,8,32.5000
1940,"Drama",4.0000,1,4.0000
1941,"Drama",3.5000,2,7.0000
1942,"Drama",4.2500,4,17.0000
1944,"Drama_Romance_War",3.9545,11,43.5000
1945,"Crime_Drama",4.1875,24,100.5000
1946,"Drama_Romance",3.8333,3,11.5000
1947,"Drama_Musical_Romance",3.6029,34,122.5000
1948,"Adventure_Comedy_Romance",3.6429,7,25.5000
1949,"Drama",4.3333,6,26.0000
1950,"Drama_Mystery",4.1818,11,46.0000
1951,"Drama_Musical",3.5714,7,25.0000
1952,"Drama",3.9545,22,87.0000
1953,"Action_Crime_Thriller",3.8718,39,151.0000
1954,"Drama",3.8281,64,245.0000
1955,"Drama",3.8929,14,54.5000
1956,"Drama",4.0000,12,48.0000
1957,"Drama",4.0385,13,52.5000
1958,"Comedy_Drama",3.7955,22,83.5000
1959,"Drama_Romance",3.6667,15,55.0000
1960,"Drama",3.6923,26,96.0000
1961,"Drama",3.8073,96,365.5000
1962,"Drama",3.7391,23,86.0000
1963,"Comedy_Crime",3.3636,11,37.0000
1964,"Drama_Mystery",4.0833,6,24.5000
1965,"Comedy_Sci-Fi",3.3810,21,71.0000
1966,"Comedy",3.6250,8,29.0000
1967,"Adventure_Fantasy_Musical",3.8214,42,160.5000
1968,"Comedy_Drama",3.7788,113,427.0000
1969,"Horror",2.3500,10,23.5000
1970,"Horror_Thriller",2.9167,12,35.0000
1971,"Horror_Thriller",2.4286,7,17.0000
1972,"Horror",2.1429,7,15.0000
1973,"Horror",2.2000,5,11.0000
1974,"Horror_Mystery_Thriller",2.8750,16,46.0000
1975,"Horror",2.5000,7,17.5000
1976,"Horror",2.2143,7,15.5000
1977,"Horror",2.5833,6,15.5000
1978,"Horror",2.5000,2,5.0000
1979,"Horror",3.2500,4,13.0000
1980,"Horror",2.0000,1,2.0000
1981,"Horror",2.0000,3,6.0000
1982,"Horror",3.7222,27,100.5000
1983,"Horror",2.4000,5,12.0000
1984,"Horror",2.1667,3,6.5000
1985,"Horror",2.0000,1,2.0000
1986,"Horror",1.5000,2,3.0000
1987,"Horror",2.5000,2,5.0000
1990,"Horror",4.0000,1,4.0000
1991,"Horror_Thriller",2.7083,12,32.5000
1992,"Horror_Thriller",2.3750,4,9.5000
1993,"Comedy_Horror_Thriller",1.8000,5,9.0000
1994,"Horror_Thriller",3.4255,47,161.0000
1995,"Horror_Thriller",1.6667,6,10.0000
1996,"Horror_Thriller",1.8750,4,7.5000
1997,"Horror_Mystery",3.8019,53,201.5000
1998,"Horror",1.5000,4,6.0000
1999,"Horror",2.0000,4,8.0000
2000,"Action_Comedy_Crime_Drama",3.6733,75,275.5000
2001,"Action_Comedy_Crime_Drama",3.1809,47,149.5000
2002,"Action_Comedy_Crime_Drama",2.9348,46,135.0000
2003,"Comedy_Horror",3.3780,41,138.5000
2004,"Comedy_Horror",3.3333,15,50.0000
2005,"Action_Adventure_Children_Comedy_Fantasy",3.5702,57,203.5000
2006,"Action_Comedy_Romance",3.1000,60,186.0000
2007,"Comedy",3.5000,2,7.0000
2008,"Crime_Drama_Film-Noir",3.0000,1,3.0000
2009,"Drama_Mystery_Sci-Fi_Thriller",3.4737,19,66.0000
2010,"Drama_Sci-Fi",3.8571,21,81.0000
2011,"Adventure_Comedy_Sci-Fi",3.5057,87,305.0000
2012,"Adventure_Comedy_Sci-Fi_Western",3.3693,88,296.5000
2013,"Action_Adventure_Drama",3.0952,21,65.0000
2014,"Children_Comedy_Fantasy",2.6250,8,21.0000
2015,"Children_Comedy_Fantasy",3.3889,9,30.5000
2016,"Children_Comedy_Western",2.8750,4,11.5000
2017,"Children_Fantasy_Musical",3.1000,5,15.5000
2018,"Animation_Children_Drama",3.3684,38,128.0000
2019,"Action_Adventure_Drama",4.1875,48,201.0000
2020,"Drama_Romance",4.0000,25,100.0000
2021,"Adventure_Sci-Fi",3.4324,37,127.0000
2022,"Drama",3.6875,8,29.5000
2023,"Crime_Drama_Mystery_Thriller",3.3556,45,151.0000
2024,"Drama_Mystery",3.3333,3,10.0000
2025,"Drama_Romance",3.9286,7,27.5000
2026,"Horror_Thriller",2.0000,3,6.0000
2027,"Comedy_Crime",1.8333,9,16.5000
2028,"Action_Drama_War",4.1463,188,779.5000
2032,"Children_Comedy",2.0000,1,2.0000
2033,"Adventure_Animation_Children_Fantasy",3.7500,8,30.0000
2034,"Children_Sci-Fi",2.6111,9,23.5000
2035,"Children_Comedy",3.6667,3,11.0000
2036,"Children_Comedy",2.2500,6,13.5000
2037,"Adventure_Children_Comedy",4.0000,1,4.0000
2038,"Children_Comedy_Sci-Fi",2.3333,3,7.0000
2040,"Children_Comedy",2.8571,7,20.0000
2041,"Action_Adventure_Children_Comedy",3.3333,3,10.0000
2042,"Children_Comedy",2.5833,6,15.5000
2043,"Adventure_Children_Fantasy",2.7500,4,11.0000
2044,"Comedy_Fantasy",2.5000,2,5.0000
2046,"Adventure_Children_Sci-Fi",3.2083,24,77.0000
2048,"Action_Animation_Children_Crime",3.5625,8,28.5000
2050,"Adventure_Children_Comedy",2.8750,4,11.5000
2051,"Adventure_Children_Comedy",2.3333,3,7.0000
2052,"Children_Comedy_Fantasy_Horror",2.7609,23,63.5000
2053,"Children_Comedy_Sci-Fi",2.0500,20,41.0000
2054,"Adventure_Children_Comedy_Fantasy_Sci-Fi",2.7574,68,187.5000
2055,"Action_Comedy_Western",3.0000,1,3.0000
2056,"Adventure_Children",3.0000,1,3.0000
2057,"Adventure_Children",3.3750,4,13.5000
2058,"Action_Crime_Drama_Mystery_Thriller",3.3500,30,100.5000
2059,"Children_Comedy_Romance",3.0000,15,45.0000
2060,"Comedy",3.0714,14,43.0000
2064,"Documentary",3.8387,31,119.0000
2065,"Comedy_Drama_Fantasy_Romance",3.7308,13,48.5000
2066,"Film-Noir",4.1250,4,16.5000
2067,"Drama_Romance_War",4.1429,21,87.0000
2068,"Drama_Fantasy_Mystery",2.7500,2,5.5000
2069,"Drama",4.2500,2,8.5000
2070,"Drama_Romance_Western",3.4000,5,17.0000
2071,"Drama",3.2500,2,6.5000
2072,"Comedy",3.1765,17,54.0000
2073,"Comedy",3.6000,5,18.0000
2074,"Crime_Drama_Romance",3.6667,3,11.0000
2075,"Drama_War",5.0000,1,5.0000
2076,"Drama_Mystery_Thriller",3.9457,46,181.5000
2077,"Adventure_Children",3.4000,5,17.0000
2078,"Animation_Children_Comedy_Musical",3.8302,53,203.0000
2080,"Animation_Children_Comedy_Romance",3.4000,55,187.0000
2081,"Animation_Children_Comedy_Musical_Romance",3.4254,67,229.5000
2082,"Children_Comedy",2.6538,26,69.0000
2083,"Children_Comedy_Musical",3.7368,19,71.0000
2084,"Children_Musical",2.7000,5,13.5000
2085,"Adventure_Animation_Children",3.4318,44,151.0000
2087,"Animation_Children_Fantasy_Musical",3.5732,41,146.5000
2088,"Adventure_Comedy_Musical",2.5000,18,45.0000
2089,"Adventure_Animation_Children",3.5000,10,35.0000
2090,"Adventure_Animation_Children_Crime_Drama",3.1923,13,41.5000
2091,"Children_Sci-Fi",2.2500,4,9.0000
2092,"Adventure_Animation_Children_Fantasy_Musical_Romance",2.4167,6,14.5000
2093,"Adventure_Children_Fantasy",3.0000,6,18.0000
2094,"Action_Adventure_Sci-Fi",3.2564,39,127.0000
2095,"Children_Comedy",2.8333,3,8.5000
2096,"Animation_Children_Musical",3.4091,22,75.0000
2097,"Children_Drama_Fantasy_Mystery_Thriller",2.9000,10,29.0000
2098,"Children_Comedy",2.5000,2,5.0000
2099,"Adventure_Animation_Children_Musical",3.4167,6,20.5000
2100,"Comedy_Fantasy_Romance",3.1176,51,159.0000
2102,"Animation_Children_Comedy_Musical",2.3333,3,7.0000
2103,"Adventure_Children_Fantasy_Western",2.5000,3,7.5000
2104,"Drama",4.0000,1,4.0000
2105,"Action_Adventure_Sci-Fi",3.3400,50,167.0000
2106,"Drama_War",3.7000,5,18.5000
2107,"Horror_Thriller",3.0000,3,9.0000
2108,"Comedy_Romance",3.4792,24,83.5000
2109,"Comedy",3.3704,27,91.0000
2110,"Comedy_Crime_Thriller",3.3056,18,59.5000
2111,"Comedy",3.2500,10,32.5000
2112,"Crime_Drama",3.1875,8,25.5000
2114,"Drama",3.7188,16,59.5000
2115,"Action_Adventure_Fantasy",3.6389,108,393.0000
2116,"Adventure_Animation_Children_Fantasy",3.1333,15,47.0000
2117,"Drama_Sci-Fi",3.7143,14,52.0000
2118,"Thriller",3.7333,15,56.0000
2119,"Horror",1.3333,3,4.0000
2120,"Drama_Horror",2.0000,4,8.0000
2121,"Horror_Thriller",2.2143,7,15.5000
2122,"Horror_Thriller",2.4545,11,27.0000
2123,"Animation_Children_Comedy_Drama_Fantasy",2.7000,15,40.5000
2124,"Children_Comedy_Fantasy",3.2895,38,125.0000
2125,"Comedy_Drama_Romance",3.6190,21,76.0000
2126,"Action_Crime_Mystery_Thriller",2.7667,15,41.5000
2130,"Crime_Drama_Romance",3.6875,8,29.5000
2131,"Drama",4.6250,4,18.5000
2132,"Drama",4.1429,7,29.0000
2133,"Adventure_Comedy",3.3250,20,66.5000
2134,"Comedy_Fantasy_Sci-Fi",3.1136,22,68.5000
2135,"Adventure_Children_Musical",3.7727,11,41.5000
2136,"Comedy_Sci-Fi",2.4643,14,34.5000
2137,"Animation_Children",3.5476,21,74.5000
2138,"Adventure_Animation_Children_Drama_Fantasy",4.0500,10,40.5000
2139,"Adventure_Animation_Children_Drama",3.4762,21,73.0000
2140,"Adventure_Fantasy",3.5441,34,120.5000
2141,"Adventure_Animation_Children_Comedy",3.1667,18,57.0000
2142,"Adventure_Animation_Children_Musical_Western",2.7000,10,27.0000
2143,"Adventure_Fantasy_Romance",3.0769,13,40.0000
2144,"Comedy_Romance",3.6020,49,176.5000
2145,"Comedy_Drama_Romance",3.2424,33,107.0000
2146,"Drama_Romance",3.2188,16,51.5000
2147,"Adventure_Drama_Fantasy",2.6667,3,8.0000
2148,"Comedy_Fantasy_Horror",3.0556,9,27.5000
2149,"Comedy_Fantasy_Horror",1.7500,4,7.0000
2150,"Adventure_Comedy",3.8929,28,109.0000
2151,"Comedy",3.7500,6,22.5000
2152,"Children_Comedy",2.0000,3,6.0000
2153,"Action_Adventure",2.3182,11,25.5000
2154,"Drama_Romance",1.7500,2,3.5000
2155,"Comedy_Drama",3.6250,8,29.0000
2156,"Comedy_Drama_Romance",4.0000,1,4.0000
2159,"Crime_Horror_Thriller",3.9286,7,27.5000
2160,"Drama_Horror_Thriller",4.1719,32,133.5000
2161,"Adventure_Children_Fantasy",3.5814,43,154.0000
2162,"Adventure_Children_Fantasy",2.5000,8,20.0000
2163,"Comedy_Horror",2.2000,5,11.0000
2164,"Action_Comedy_Drama_Horror",1.0000,1,1.0000
2165,"Comedy_Drama",3.5000,2,7.0000
2166,"Crime_Drama_Romance_Thriller",2.5000,4,10.0000
2167,"Action_Horror_Thriller",3.3621,58,195.0000
2169,"Comedy",2.2857,7,16.0000
2170,"Action_Comedy",2.4000,5,12.0000
2171,"Comedy_Drama_Romance",3.3125,8,26.5000
2172,"Comedy_Drama",3.0000,1,3.0000
2174,"Comedy_Fantasy",3.4725,91,316.0000
2175,"Drama_Romance",4.5000,1,4.5000
2176,"Crime_Drama_Thriller",3.9000,10,39.0000
2177,"Comedy_Thriller",3.1667,3,9.5000
2178,"Thriller",3.5000,2,7.0000
2179,"Thriller",3.0000,1,3.0000
2180,"Thriller",3.5000,1,3.5000
2181,"Drama_Mystery_Romance_Thriller",3.6250,4,14.5000
2182,"Drama_Film-Noir_Thriller",2.8750,4,11.5000
2183,"Adventure_Drama_Mystery_Thriller",3.5556,9,32.0000
2184,"Comedy_Mystery",3.4167,6,20.5000
2185,"Thriller",4.0000,2,8.0000
2186,"Crime_Drama_Film-Noir_Thriller",3.9800,25,99.5000
2187,"Mystery_Romance_Thriller",3.5000,2,7.0000
2188,"Drama",2.0000,5,10.0000
2190,"Drama",2.0000,1,2.0000
2193,"Action_Adventure_Fantasy",3.3375,40,133.5000
2194,"Action_Crime_Drama",3.9385,65,256.0000
2195,"Comedy",3.2143,7,22.5000
2196,"Action",5.0000,1,5.0000
2201,"Drama",3.5000,2,7.0000
2202,"Drama_War",4.3571,7,30.5000
2203,"Crime_Drama_Thriller",4.1429,7,29.0000
2204,"Mystery_Thriller",3.8750,4,15.5000
2205,"Comedy_Romance",2.8750,4,11.5000
2206,"Film-Noir_Mystery_Thriller",4.0000,5,20.0000
2207,"Drama",3.0000,1,3.0000
2208,"Drama_Mystery_Thriller",3.9167,6,23.5000
2210,"Thriller",3.2500,2,6.5000
2211,"Thriller",3.0000,1,3.0000
2212,"Drama_Thriller",3.6667,3,11.0000
2226,"Drama",1.0000,1,1.0000
2227,"Crime_Drama_Thriller",3.5000,3,10.5000
2231,"Drama",3.8611,36,139.0000
2232,"Horror_Mystery_Sci-Fi_Thriller",3.4259,27,92.5000
2236,"Drama",3.0000,9,27.0000
2239,"Comedy_Drama",4.6667,6,28.0000
2240,"Drama",3.8571,7,27.0000
2241,"Comedy",3.5000,4,14.0000
2243,"Comedy_Drama_Romance",3.4286,28,96.0000
2244,"Comedy_Romance",1.5000,2,3.0000
2245,"Comedy_Drama_Romance",3.2045,22,70.5000
2247,"Comedy",3.0000,12,36.0000
2248,"Comedy_Drama_Romance",3.9231,39,153.0000
2249,"Comedy",3.1818,11,35.0000
2252,"Comedy_Drama",2.5000,5,12.5000
2253,"Comedy_Fantasy",2.3750,20,47.5000
2255,"Comedy",1.5000,2,3.0000
2256,"Horror_Sci-Fi",2.5000,2,5.0000
2257,"Comedy_Romance",4.0000,1,4.0000
2259,"Comedy_Romance",3.1875,8,25.5000
2260,"Crime_Drama",2.5000,2,5.0000
2261,"Comedy",3.0000,6,18.0000
2262,"Comedy_Drama_Romance",3.0000,9,27.0000
2263,"Drama_Fantasy_Thriller",2.8000,5,14.0000
2264,"Comedy_Crime",2.7500,4,11.0000
2265,"Adventure_Comedy",2.3750,4,9.5000
2266,"Comedy_Romance",3.1000,5,15.5000
2267,"Mystery_Thriller",2.5000,2,5.0000
2268,"Crime_Drama_Thriller",3.7895,57,216.0000
2269,"Drama_Romance",3.0000,8,24.0000
2271,"Drama",3.0000,2,6.0000
2272,"Drama",2.7500,2,5.5000
2273,"Action_Comedy_Crime_Thriller",3.2619,42,137.0000
2275,"Action_Adventure_Sci-Fi",3.6000,5,18.0000
2278,"Action_Crime_Thriller",3.5233,43,151.5000
2279,"Horror_Thriller",2.4000,10,24.0000
2280,"Crime",3.0000,2,6.0000
2281,"Action_Crime_Drama",2.5000,1,2.5000
2282,"Comedy_Drama",3.4167,6,20.5000
2283,"Drama",3.5000,2,7.0000
2286,"Comedy",2.0000,1,2.0000
2287,"Horror_Sci-Fi_Thriller",3.8000,5,19.0000
2288,"Action_Horror_Sci-Fi_Thriller",3.9333,45,177.0000
2289,"Comedy_Crime_Drama",3.9474,38,150.0000
2290,"Comedy_Drama",3.6000,5,18.0000
2291,"Drama_Fantasy_Romance",3.7000,80,296.0000
2292,"Comedy_Romance",2.5000,1,2.5000
2294,"Adventure_Animation_Children_Comedy_Fantasy",3.2444,45,146.0000
2295,"Comedy",4.5000,2,9.0000
2296,"Comedy",2.1000,10,21.0000
2297,"Adventure_Drama_Fantasy_Romance",3.6429,14,51.0000
2298,"Thriller",4.0000,1,4.0000
2300,"Comedy",3.9697,33,131.0000
2301,"Comedy_Musical",3.6250,16,58.0000
2302,"Comedy",3.2627,59,192.5000
2303,"Drama_Musical",3.6000,5,18.0000
2304,"Drama",4.0000,1,4.0000
2306,"Comedy",2.5833,6,15.5000
2307,"Action_Crime",3.0000,1,3.0000
2310,"Drama",3.6667,3,11.0000
2311,"Sci-Fi",3.5882,17,61.0000
2312,"Drama",3.8333,12,46.0000
2313,"Drama",4.0294,17,68.5000
2314,"Drama",4.5000,2,9.0000
2315,"Comedy_Horror_Thriller",2.1667,6,13.0000
2316,"Drama_Fantasy_Mystery_Romance",3.2143,7,22.5000
2318,"Comedy_Drama",4.1250,16,66.0000
2320,"Drama_Thriller",3.0000,9,27.0000
2321,"Comedy_Drama_Fantasy",3.4836,61,212.5000
2322,"Action_Sci-Fi_War",3.0625,8,24.5000
2323,"Documentary",4.2500,2,8.5000
2324,"Comedy_Drama_Romance_War",4.1477,88,365.0000
2325,"Comedy",3.1154,13,40.5000
2327,"Fantasy_Horror_Thriller",3.6667,3,11.0000
2328,"Horror_Western",2.4286,7,17.0000
2329,"Crime_Drama",4.2171,129,544.0000
2330,"Comedy_Documentary",4.5000,2,9.0000
2331,"Comedy_Drama_Romance",3.0000,3,9.0000
2332,"Crime_Drama",1.2500,2,2.5000
2333,"Drama",4.1250,4,16.5000
2334,"Action_Thriller",2.8077,13,36.5000
2335,"Comedy",3.1786,28,89.0000
2336,"Drama",3.6739,23,84.5000
2337,"Drama",3.3750,4,13.5000
2338,"Horror_Mystery_Thriller",2.0556,18,37.0000
2339,"Comedy_Romance",1.5000,1,1.5000
2340,"Romance",3.0500,20,61.0000
2342,"Comedy_Drama",4.0000,2,8.0000
2344,"Action_Adventure_Drama_Thriller",3.2500,8,26.0000
2346,"Mystery_Sci-Fi_Thriller",3.1818,11,35.0000
2347,"Drama",2.3333,3,7.0000
2348,"Drama",3.4375,8,27.5000
2349,"Comedy_Thriller",3.5000,7,24.5000
2350,"Comedy",3.5000,2,7.0000
2351,"Drama",4.2857,7,30.0000
2352,"Comedy_Drama",3.8400,25,96.0000
2353,"Action_Thriller",3.4925,67,234.0000
2354,"Animation_Children_Comedy",2.5000,7,17.5000
2355,"Adventure_Animation_Children_Comedy",3.5163,92,323.5000
2356,"Comedy",2.6000,5,13.0000
2357,"Drama",4.4167,6,26.5000
2358,"Drama_War",4.0000,1,4.0000
2359,"Comedy",3.6731,26,95.5000
2360,"Drama",4.4583,12,53.5000
2361,"Comedy",2.7500,10,27.5000
2362,"Drama",4.0000,1,4.0000
2363,"Drama_Horror_Sci-Fi",2.1667,3,6.5000
2364,"Action_Horror_Sci-Fi_Thriller",1.5000,2,3.0000
2365,"Action_Sci-Fi",2.5000,2,5.0000
2366,"Action_Adventure_Fantasy_Horror",3.6400,25,91.0000
2367,"Adventure_Fantasy_Romance_Sci-Fi_Thriller",2.7143,14,38.0000
2368,"Adventure_Sci-Fi",2.0000,1,2.0000
2369,"Comedy_Drama_Romance",2.6667,24,64.0000
2370,"Action_Adventure_Drama",3.0000,1,3.0000
2371,"Comedy_Crime_Mystery",3.0833,24,74.0000
2372,"Comedy",2.2222,9,20.0000
2373,"Action_Adventure_Fantasy",2.2778,9,20.5000
2374,"Comedy_Drama",3.1667,9,28.5000
2375,"Comedy",2.9286,21,61.5000
2376,"Action_Adventure_Thriller",3.2143,21,67.5000
2377,"Horror_Sci-Fi",2.5000,5,12.5000
2378,"Comedy_Crime",3.0227,22,66.5000
2379,"Comedy_Crime",2.4583,12,29.5000
2380,"Comedy_Crime",2.3000,10,23.0000
2381,"Comedy_Crime",2.1429,7,15.0000
2382,"Comedy_Crime",2.5000,5,12.5000
2383,"Comedy_Crime",1.5000,4,6.0000
2384,"Adventure_Children_Drama",2.7759,29,80.5000
2385,"Comedy_Romance",2.3333,3,7.0000
2387,"Comedy_Crime",3.4375,16,55.0000
2388,"Drama_Romance",4.0000,1,4.0000
2389,"Crime_Horror_Thriller",1.8889,9,17.0000
2390,"Comedy",3.9286,7,27.5000
2391,"Crime_Drama_Thriller",3.7955,22,83.5000
2392,"Children_Comedy_Drama",1.9375,8,15.5000
2393,"Action_Drama_Romance_Sci-Fi",3.1515,33,104.0000
2394,"Animation_Musical",3.5000,25,87.5000
2395,"Comedy_Drama",3.5446,56,198.5000
2396,"Comedy_Drama_Romance",3.7772,92,347.5000
2398,"Comedy_Drama",4.0588,17,69.0000
2399,"Adventure_Children_Fantasy",2.2500,4,9.0000
2400,"Children_Drama_Fantasy",3.0000,2,6.0000
2401,"Western",3.8125,8,30.5000
2402,"Action_Adventure_Thriller",2.6579,19,50.5000
2403,"Action_Adventure_Drama_Thriller",3.5500,30,106.5000
2404,"Action_Adventure_Thriller_War",1.9167,12,23.0000
2405,"Action_Adventure_Comedy_Romance",2.8095,21,59.0000
2406,"Action_Adventure_Comedy_Romance",3.4537,54,186.5000
2407,"Comedy_Sci-Fi",3.2674,43,140.5000
2408,"Comedy_Sci-Fi",2.3333,9,21.0000
2409,"Action_Drama",3.1923,26,83.0000
2410,"Action_Drama",2.7292,24,65.5000
2411,"Action_Drama",2.7069,29,78.5000
2412,"Action_Drama",1.9412,17,33.0000
2413,"Comedy_Crime_Mystery_Thriller",3.3889,18,61.0000
2414,"Action_Adventure_Children_Fantasy_Mystery_Thriller",3.3636,11,37.0000
2415,"Drama_Romance",3.0000,1,3.0000
2416,"Comedy",2.9062,16,46.5000
2417,"Comedy_Drama",1.0000,1,1.0000
2418,"Comedy",2.7500,6,16.5000
2419,"Drama_Thriller",3.7500,2,7.5000
2420,"Drama",3.5658,38,135.5000
2421,"Action_Adventure_Drama",2.7759,29,80.5000
2422,"Action_Adventure_Children_Drama",1.7500,14,24.5000
2423,"Comedy",3.5667,30,107.0000
2424,"Comedy_Romance",3.1200,50,156.0000
2425,"Crime",4.0000,2,8.0000
2427,"Action_Drama_War",3.3000,35,115.5000
2428,"Horror_Sci-Fi",2.4783,23,57.0000
2429,"Action_Adventure_Drama_Fantasy_Thriller",2.8000,5,14.0000
2430,"Adventure_Children_Drama",2.8333,6,17.0000
2431,"Comedy_Drama",3.3704,27,91.0000
2432,"Drama",3.0833,6,18.5000
2433,"Drama",3.0455,11,33.5000
2435,"Drama",4.0000,1,4.0000
2436,"Comedy_Drama_War",4.2500,6,25.5000
2439,"Drama",3.1667,3,9.5000
2442,"Drama",3.8333,3,11.5000
2443,"Drama_Romance",3.3750,8,27.0000
2445,"Drama",2.6875,8,21.5000
2446,"Horror_Thriller",2.0000,2,4.0000
2447,"Comedy_Drama",3.2667,15,49.0000
2448,"Horror_Sci-Fi",2.6667,3,8.0000
2450,"Adventure_Comedy_Sci-Fi",2.1562,16,34.5000
2451,"Horror",3.0000,1,3.0000
2453,"Drama_Fantasy",2.1667,3,6.5000
2454,"Horror_Mystery_Sci-Fi",3.3846,13,44.0000
2455,"Drama_Horror_Sci-Fi_Thriller",3.3837,43,145.5000
2456,"Horror_Sci-Fi",2.2778,9,20.5000
2457,"Action_Comedy",3.5625,8,28.5000
2458,"Comedy_Crime",2.7500,8,22.0000
2459,"Horror",3.2692,13,42.5000
2460,"Horror",2.0000,3,6.0000
2462,"Horror",3.0000,1,3.0000
2463,"Comedy",3.3214,14,46.5000
2465,"Horror",1.5000,3,4.5000
2467,"Crime_Drama_Mystery_Thriller",3.7500,18,67.5000
2468,"Action_Comedy_Romance_Thriller",2.5000,15,37.5000
2469,"Comedy_Drama",3.2143,7,22.5000
2470,"Adventure_Comedy",3.1754,57,181.0000
2471,"Action_Adventure_Comedy",2.4792,24,59.5000
2472,"Comedy",3.0000,3,9.0000
2473,"Comedy",2.5625,8,20.5000
2474,"Drama",3.5000,13,45.5000
2475,"Action_Mystery_Thriller",3.6667,3,11.0000
2476,"Action_War",3.7500,12,45.0000
2477,"Adventure",3.3333,3,10.0000
2478,"Comedy_Western",3.1346,26,81.5000
2481,"Drama_Romance",4.0000,1,4.0000
2482,"Comedy_Romance",3.0000,2,6.0000
2483,"Adventure_Comedy_Thriller",3.5000,1,3.5000
2485,"Comedy_Romance",2.8448,29,82.5000
2488,"Drama_Horror_Thriller",3.0000,3,9.0000
2490,"Action_Thriller",3.4222,45,154.0000
2491,"Comedy_Romance",3.6000,5,18.0000
2492,"Comedy_Romance",3.0000,7,21.0000
2493,"Drama",4.0000,1,4.0000
2494,"Documentary",4.0000,2,8.0000
2495,"Animation_Sci-Fi",4.0000,3,12.0000
2496,"Comedy_Romance",3.1087,23,71.5000
2497,"Romance",2.9167,6,17.5000
2498,"Comedy_Sci-Fi",2.1000,5,10.5000
2500,"Comedy",2.0000,7,14.0000
2501,"Drama",3.7500,30,112.5000
2502,"Comedy_Crime",4.0904,94,384.5000
2503,"Drama",4.0000,1,4.0000
2504,"Comedy_Drama",3.1667,6,19.0000
2505,"Drama_Mystery_Thriller",2.9444,18,53.0000
2506,"Comedy_Drama_Romance",3.3333,6,20.0000
2511,"Crime_Film-Noir",4.6667,3,14.0000
2512,"Drama",5.0000,1,5.0000
2513,"Horror",2.8500,10,28.5000
2514,"Comedy_Horror",1.8333,3,5.5000
2515,"Horror",1.7500,2,3.5000
2516,"Horror",1.0000,1,1.0000
2517,"Horror",2.9500,10,29.5000
2518,"Comedy",3.0500,10,30.5000
2520,"Drama",2.1667,3,6.5000
2521,"Action_Drama_Thriller",3.5000,2,7.0000
2522,"Drama",3.2500,4,13.0000
2523,"Drama_Thriller",2.5000,2,5.0000
2524,"Action_Adventure_Drama_Thriller",3.2222,9,29.0000
2525,"Action_Horror_Sci-Fi",2.0000,3,6.0000
2526,"Sci-Fi",1.8333,3,5.5000
2527,"Action_Sci-Fi_Thriller_Western",3.4167,18,61.5000
2528,"Action_Adventure_Sci-Fi",3.2292,24,77.5000
2529,"Action_Drama_Sci-Fi",3.8036,56,213.0000
2530,"Action_Sci-Fi",2.7778,18,50.0000
2531,"Action_Sci-Fi",2.7778,9,25.0000
2532,"Action_Sci-Fi",2.7917,12,33.5000
2533,"Action_Sci-Fi",3.0000,15,45.0000
2534,"Action",2.5000,3,7.5000
2535,"Action_Drama_Thriller",2.6667,3,8.0000
2537,"Adventure",2.0000,3,6.0000
2538,"Documentary",1.0000,1,1.0000
2539,"Comedy",3.0957,47,145.5000
2540,"Action_Crime_Drama_Thriller",2.5000,3,7.5000
2541,"Drama",3.2250,40,129.0000
2542,"Comedy_Crime_Thriller",4.0522,67,271.5000
2544,"Drama_Romance",3.0000,1,3.0000
2546,"Drama",3.2500,2,6.5000
2548,"Horror",1.8333,6,11.0000
2549,"Action_Sci-Fi",2.9167,6,17.5000
2550,"Horror_Thriller",4.0000,7,28.0000
2551,"Drama_Horror_Thriller",3.6875,8,29.5000
2552,"Comedy",1.5000,2,3.0000
2553,"Horror_Sci-Fi_Thriller",3.0833,6,18.5000
2554,"Horror_Sci-Fi_Thriller",3.1667,3,9.5000
2555,"Comedy",1.6667,3,5.0000
2557,"Drama_Thriller",4.5000,1,4.5000
2558,"Comedy_Romance",2.3333,9,21.0000
2559,"Animation_Children",3.0000,1,3.0000
2560,"Horror_Thriller",3.0000,8,24.0000
2561,"Crime_Thriller",2.7500,4,11.0000
2563,"Drama",4.1667,3,12.5000
2565,"Drama_Musical_Romance",4.1667,12,50.0000
2566,"Animation_Children",2.0000,2,4.0000
2567,"Comedy",2.9737,19,56.5000
2568,"Action_Crime",3.1875,8,25.5000
2570,"Drama_Romance",3.2000,5,16.0000
2571,"Action_Sci-Fi_Thriller",4.1924,278,1165.5000
2572,"Comedy_Romance",3.5278,54,190.5000
2573,"Drama_Musical",1.0000,1,1.0000
2574,"Comedy",2.0000,6,12.0000
2575,"Drama",3.7500,4,15.0000
2577,"Comedy_Drama",3.0000,1,3.0000
2579,"Crime_Mystery_Thriller",3.8333,6,23.0000
2580,"Comedy_Crime",3.9615,39,154.5000
2581,"Comedy_Romance",2.9583,36,106.5000
2582,"Action_Comedy",3.0000,3,9.0000
2583,"Comedy_Drama",3.8750,12,46.5000
2585,"Drama_Romance",4.2500,2,8.5000
2586,"Comedy_Crime_Thriller",1.7500,2,3.5000
2587,"Comedy_Crime_Drama",3.2500,4,13.0000
2589,"Comedy_Drama_Romance",3.5000,1,3.5000
2590,"Drama",2.5000,1,2.5000
2593,"Comedy",3.3750,4,13.5000
2594,"Drama_Romance_Sci-Fi_Thriller",3.7500,10,37.5000
2596,"Comedy_Drama",3.7917,12,45.5000
2597,"Comedy_Romance",2.7500,2,5.5000
2598,"Comedy",2.8400,25,71.0000
2599,"Comedy",3.6607,56,205.0000
2600,"Action_Sci-Fi_Thriller",3.8636,22,85.0000
2605,"Crime_Thriller",2.9884,43,128.5000
2606,"Comedy_Horror",2.5667,15,38.5000
2607,"Drama_Romance",4.0000,2,8.0000
2609,"Drama",4.0000,1,4.0000
2611,"Drama",3.0000,1,3.0000
2612,"Drama_Film-Noir",4.0000,1,4.0000
2613,"Comedy_Horror_Sci-Fi",2.8750,8,23.0000
2614,"Action_Horror_Sci-Fi",1.0000,2,2.0000
2615,"Adventure_Sci-Fi",2.8750,4,11.5000
2616,"Action_Crime",2.8846,26,75.0000
2617,"Action_Adventure_Comedy_Fantasy_Horror_Thriller",3.1207,87,271.5000
2618,"Comedy",3.4000,5,17.0000
2620,"Drama_Romance",3.0000,1,3.0000
2622,"Comedy_Fantasy",3.1364,11,34.5000
2623,"Comedy",1.0000,1,1.0000
2624,"Drama_Fantasy",4.2500,2,8.5000
2625,"Action_Adventure_Crime_Sci-Fi_Thriller",2.5000,2,5.0000
2628,"Action_Adventure_Sci-Fi",3.1071,140,435.0000
2629,"Comedy_Romance",2.5000,2,5.0000
2630,"Drama",3.5000,2,7.0000
2632,"Adventure_Drama_Mystery",4.0000,1,4.0000
2633,"Horror_Romance",3.3333,3,10.0000
2634,"Horror",3.3333,3,10.0000
2639,"Drama",3.1250,4,12.5000
2640,"Action_Adventure_Sci-Fi",3.6066,61,220.0000
2641,"Action_Sci-Fi",3.0204,49,148.0000
2642,"Action_Adventure_Sci-Fi",2.2500,22,49.5000
2643,"Action_Adventure_Sci-Fi",1.6875,16,27.0000
2644,"Horror",3.3333,9,30.0000
2648,"Drama_Horror_Sci-Fi",3.9091,11,43.0000
2651,"Horror",1.0000,1,1.0000
2652,"Horror",3.0000,1,3.0000
2654,"Drama_Fantasy_Horror",3.6000,5,18.0000
2655,"Horror",2.0000,1,2.0000
2656,"Horror_Sci-Fi",3.0000,1,3.0000
2657,"Comedy_Horror_Musical_Sci-Fi",3.3413,63,210.5000
2659,"Comedy_Documentary",2.0000,1,2.0000
2660,"Horror_Sci-Fi",3.5000,4,14.0000
2661,"Sci-Fi",3.0000,1,3.0000
2662,"Action_Drama_Sci-Fi",3.1667,12,38.0000
2664,"Horror_Sci-Fi_Thriller",3.7692,13,49.0000
2665,"Sci-Fi",1.0000,1,1.0000
2668,"Horror_Sci-Fi",2.9375,8,23.5000
2669,"War",3.5000,2,7.0000
2670,"War",3.6000,5,18.0000
2671,"Comedy_Romance",3.4554,56,193.5000
2672,"Drama_Sci-Fi_Thriller",2.9583,12,35.5000
2674,"Drama_Fantasy",2.2500,2,4.5000
2676,"Drama_Thriller",3.1667,6,19.0000
2677,"Documentary_Musical",4.3750,4,17.5000
2681,"Comedy_Romance_Sci-Fi",3.0000,3,9.0000
2682,"Drama",4.0000,3,12.0000
2683,"Action_Adventure_Comedy",3.1983,121,387.0000
2686,"Drama_Mystery",4.0263,19,76.5000
2687,"Adventure_Animation_Children_Drama",3.4583,24,83.0000
2688,"Crime_Drama_Mystery_Thriller",2.9333,15,44.0000
2690,"Comedy_Romance",3.7000,10,37.0000
2691,"Drama",3.6667,3,11.0000
2692,"Action_Crime",4.0000,75,300.0000
2693,"Documentary",3.3750,4,13.5000
2694,"Comedy",3.1979,48,153.5000
2695,"Drama",2.0000,1,2.0000
2696,"Comedy",4.3333,3,13.0000
2697,"Comedy_Drama_Romance",3.5000,1,3.5000
2698,"Sci-Fi",2.0000,1,2.0000
2699,"Comedy_Horror",2.8113,53,149.0000
2700,"Animation_Comedy_Musical",3.8618,76,293.5000
2701,"Action_Comedy_Sci-Fi_Western",2.2075,53,117.0000
2702,"Drama",3.4000,15,51.0000
2706,"Comedy_Romance",3.3786,103,348.0000
2707,"Thriller",3.2727,22,72.0000
2708,"Romance",4.0000,3,12.0000
2709,"Children_Comedy",3.1667,9,28.5000
2710,"Drama_Horror_Thriller",2.7969,64,179.0000
2712,"Drama_Mystery_Thriller",3.4623,53,183.5000
2713,"Horror_Thriller",2.6667,12,32.0000
2716,"Action_Comedy_Sci-Fi",3.7750,120,453.0000
2717,"Comedy_Fantasy_Sci-Fi",3.0000,47,141.0000
2718,"Comedy",3.2000,10,32.0000
2719,"Horror_Thriller",2.1154,13,27.5000
2720,"Action_Adventure_Children_Comedy",2.0952,21,44.0000
2722,"Action_Horror_Sci-Fi_Thriller",2.7759,29,80.5000
2723,"Action_Comedy_Fantasy",3.0897,39,120.5000
2724,"Comedy_Romance",2.8333,42,119.0000
2725,"Drama",2.0000,1,2.0000
2726,"Crime_Film-Noir",4.0556,9,36.5000
2727,"Crime_Film-Noir",3.0000,1,3.0000
2728,"Action_Drama_Romance_War",3.5769,13,46.5000
2729,"Drama_Romance",3.5000,7,24.5000
2730,"Drama_Romance_War",3.7143,7,26.0000
2731,"Crime_Drama",4.0000,12,48.0000
2732,"Drama_Romance",4.5000,5,22.5000
2733,"Adventure_Comedy_Romance",2.0000,2,4.0000
2734,"Adventure_Drama_Thriller",3.2500,10,32.5000
2735,"Action_Adventure_Comedy_Fantasy_Mystery",2.7188,16,43.5000
2736,"Comedy",3.6000,5,18.0000
2737,"Action_Drama_Thriller",4.0000,1,4.0000
2738,"Comedy_Drama",4.0000,1,4.0000
2739,"Drama",3.9167,12,47.0000
2740,"Horror_Sci-Fi",1.0000,1,1.0000
2741,"Action_Crime_Thriller",2.0000,2,4.0000
2742,"Comedy_Drama",1.0000,1,1.0000
2743,"Drama",3.0000,1,3.0000
2744,"Drama",4.0000,1,4.0000
2745,"Drama",3.5000,9,31.5000
2746,"Comedy_Horror_Musical",3.3333,39,130.0000
2747,"Comedy_Horror",3.0000,9,27.0000
2748,"Action_Adventure_Comedy",1.8333,6,11.0000
2749,"Drama_Mystery",4.0000,2,8.0000
2750,"Comedy_Drama",3.1429,7,22.0000
2751,"Comedy_Drama",4.0000,1,4.0000
2752,"Comedy_Mystery",2.8125,8,22.5000
2754,"Horror",1.0000,1,1.0000
2757,"Drama",3.5000,1,3.5000
2759,"Comedy",3.5000,8,28.0000
2761,"Adventure_Animation_Children_Drama_Sci-Fi",4.0513,39,158.0000
2762,"Drama_Horror_Mystery",3.8939,179,697.0000
2763,"Action_Mystery",3.6458,48,175.0000
2764,"Crime_Drama_Romance_Thriller",4.0000,7,28.0000
2765,"Comedy_Drama",3.5000,1,3.5000
2766,"Comedy_Drama",3.2500,2,6.5000
2769,"Crime_Drama",3.4000,5,17.0000
2770,"Comedy",2.9605,38,112.5000
2771,"Drama",3.2500,4,13.0000
2772,"Comedy",2.8500,10,28.5000
2774,"Comedy_Romance",3.0000,1,3.0000
2775,"Drama",1.0000,1,1.0000
2779,"Comedy",3.2692,13,42.5000
2782,"Horror",3.3333,3,10.0000
2784,"Horror",3.2500,2,6.5000
2786,"Comedy",1.7500,4,7.0000
2787,"Horror",2.4167,6,14.5000
2788,"Comedy",4.0536,28,113.5000
2789,"Horror",2.8750,4,11.5000
2790,"Horror_Thriller",2.0000,2,4.0000
2791,"Comedy",3.8563,87,335.5000
2792,"Comedy",3.1842,19,60.5000
2793,"Comedy_Horror_Romance_Thriller",2.3000,10,23.0000
2794,"Adventure_Comedy_Romance",2.6333,15,39.5000
2795,"Comedy",3.6538,26,95.0000
2796,"Comedy",2.5909,11,28.5000
2797,"Comedy_Drama_Fantasy_Romance",3.7198,91,338.5000
2798,"Children_Comedy",1.5833,12,19.0000
2799,"Comedy",1.3125,8,10.5000
2800,"Adventure_Animation_Children_Drama_Fantasy",2.5000,1,2.5000
2801,"Drama_Romance",4.5000,1,4.5000
2802,"Action_Drama_Romance_Thriller",3.0385,13,39.5000
2803,"Crime_Drama_Mystery_Romance_Thriller",2.9231,13,38.0000
2804,"Children_Comedy",3.9727,55,218.5000
2805,"Comedy_Romance",3.0000,23,69.0000
2806,"Comedy_Thriller",2.3333,9,21.0000
2807,"Action_Sci-Fi",2.6250,4,10.5000
2808,"Action_Sci-Fi",2.2059,17,37.5000
2810,"Animation_Horror_Mystery_Thriller",4.2000,5,21.0000
2812,"Action_Thriller",3.0000,1,3.0000
2813,"Documentary",1.0000,1,1.0000
2815,"Action_War",2.2857,7,16.0000
2816,"Action_War",1.6667,3,5.0000
2817,"Action",2.0000,3,6.0000
2818,"Action_War",1.0000,3,3.0000
2819,"Drama_Mystery_Romance_Thriller",3.7500,16,60.0000
2820,"Drama",4.0000,1,4.0000
2822,"Adventure_Romance",3.1364,11,34.5000
2824,"Documentary_Drama",5.0000,1,5.0000
2826,"Action_Adventure_Fantasy",2.9038,26,75.5000
2827,"Horror_Sci-Fi_Thriller",2.2727,11,25.0000
2828,"Children_Comedy",1.5000,2,3.0000
2829,"Comedy",3.0714,7,21.5000
2835,"Action_Adventure_Comedy_Thriller",1.0000,1,1.0000
2836,"Comedy",3.5000,4,14.0000
2837,"Comedy_Romance",3.0000,1,3.0000
2839,"Drama",4.0000,1,4.0000
2840,"Drama_Thriller",2.8696,23,66.0000
2841,"Horror_Mystery_Thriller",3.5278,18,63.5000
2843,"Comedy_Romance",3.9444,9,35.5000
2844,"Drama_Mystery",2.6667,3,8.0000
2846,"Adventure_Children_Comedy_Drama",3.8571,7,27.0000
2847,"Adventure_Drama_Romance",3.0000,2,6.0000
2848,"Drama",4.0000,1,4.0000
2851,"Adventure_Sci-Fi_Thriller",3.2500,4,13.0000
2852,"Drama",4.0000,1,4.0000
2856,"Thriller",3.0000,1,3.0000
2857,"Adventure_Animation_Comedy_Fantasy_Musical",3.2857,14,46.0000
2858,"Drama_Romance",4.0564,204,827.5000
2859,"Documentary_Musical",3.8571,7,27.0000
2860,"Comedy",2.6111,9,23.5000
2861,"Comedy_Drama",3.3750,8,27.0000
2862,"Drama",1.0000,1,1.0000
2863,"Adventure_Comedy_Musical",3.4737,19,66.0000
2865,"Comedy",4.0000,1,4.0000
2866,"Drama",3.6000,5,18.0000
2867,"Comedy_Horror_Thriller",3.5833,12,43.0000
2868,"Horror",2.0000,2,4.0000
2870,"Comedy",3.3125,8,26.5000
2871,"Adventure_Drama_Thriller",3.9000,30,117.0000
2872,"Adventure_Fantasy",3.6400,25,91.0000
2874,"Comedy_Musical_Romance",3.6667,3,11.0000
2875,"Drama_Mystery_Romance",2.9500,10,29.5000
2876,"Animation_Children_Fantasy",2.0000,1,2.0000
2877,"Musical",3.0000,7,21.0000
2878,"Horror",2.0000,2,4.0000
2879,"Action_Adventure_Comedy",3.2143,7,22.5000
2880,"Action_Adventure_Comedy",3.0833,6,18.5000
2881,"Action_Crime_Drama_Thriller",3.0263,19,57.5000
2882,"Drama",2.0000,4,8.0000
2883,"Comedy_Drama",3.2000,5,16.0000
2884,"Comedy_Romance",2.0000,1,2.0000
2885,"Drama_Romance",2.0000,1,2.0000
2886,"Children_Comedy",1.5000,2,3.0000
2887,"Action_Comedy",1.0000,1,1.0000
2888,"Comedy_Romance",2.1000,5,10.5000
2889,"Comedy_Drama",3.7500,8,30.0000
2890,"Action_Adventure_Comedy_Drama_War",3.7111,45,167.0000
2891,"Comedy",4.0000,3,12.0000
2892,"Action_Drama",1.0000,1,1.0000
2893,"Action_Adventure_Drama",3.0000,1,3.0000
2894,"Drama_Romance",4.0000,1,4.0000
2896,"Western",3.0000,1,3.0000
2897,"Comedy_War",4.0000,1,4.0000
2898,"Horror_Mystery",2.0000,1,2.0000
2899,"Adventure_Animation_Children",3.0000,3,9.0000
2900,"Horror_Sci-Fi",2.5000,2,5.0000
2901,"Horror_Sci-Fi",2.8929,14,40.5000
2902,"Horror_Mystery_Thriller",2.5000,4,10.0000
2903,"Horror_Thriller",2.5000,2,5.0000
2905,"Action_Adventure_Drama",4.2500,4,17.0000
2906,"Drama_Romance",2.5714,7,18.0000
2907,"Comedy",3.5714,7,25.0000
2908,"Drama",3.5513,39,138.5000
2912,"Crime_Drama_Thriller",3.8929,14,54.5000
2915,"Comedy",3.4405,42,144.5000
2916,"Action_Adventure_Sci-Fi_Thriller",3.6534,88,321.5000
2917,"Crime_Thriller",4.0000,10,40.0000
2918,"Comedy",3.8394,109,418.5000
2919,"Drama_Romance_War",3.8125,8,30.5000
2921,"Western",4.1818,11,46.0000
2922,"Crime_Drama_Western",3.6000,5,18.0000
2924,"Action_Comedy",4.0500,10,40.5000
2925,"Drama",4.1000,5,20.5000
2926,"Comedy_Drama",3.3182,11,36.5000
2927,"Drama_Romance",3.5000,2,7.0000
2928,"Drama",3.5000,2,7.0000
2929,"Drama_Romance",3.2500,2,6.5000
2930,"Documentary",3.5000,1,3.5000
2931,"Comedy_Crime_Drama_Fantasy",4.1667,3,12.5000
2932,"Drama",3.6667,3,11.0000
2935,"Comedy_Romance",4.0000,8,32.0000
2936,"Adventure_Comedy_Romance",4.0000,7,28.0000
2937,"Comedy",4.1000,5,20.5000
2940,"Drama_Film-Noir_Mystery_Romance",4.0000,6,24.0000
2941,"Musical_Romance_War",3.7778,9,34.0000
2942,"Drama_Romance",2.8750,16,46.0000
2943,"Drama_Romance",4.1667,3,12.5000
2944,"Action_Drama_War",3.9688,32,127.0000
2946,"Comedy_Musical",3.3571,7,23.5000
2947,"Action_Adventure_Thriller",3.8396,53,203.5000
2948,"Action_Adventure_Thriller",3.7500,36,135.0000
2949,"Action_Adventure_Thriller",3.7121,33,122.5000
2950,"Adventure_Drama_Romance",2.4643,14,34.5000
2951,"Action_Western",3.9359,39,153.5000
2952,"Crime_Drama_Thriller",3.5417,12,42.5000
2953,"Children_Comedy",2.5161,31,78.0000
2956,"Action_Crime_Thriller",3.1667,6,19.0000
2959,"Action_Crime_Drama_Thriller",4.2729,218,931.5000
2961,"Comedy_Drama",2.4000,5,12.0000
2962,"Comedy_Romance",3.0000,2,6.0000
2964,"Drama",1.0000,1,1.0000
2965,"Action",2.0000,1,2.0000
2966,"Adventure_Drama",3.9286,14,55.0000
2967,"Drama_Thriller",4.0000,4,16.0000
2968,"Adventure_Comedy_Fantasy_Sci-Fi",3.7317,41,153.0000
2969,"Drama_Romance",5.0000,1,5.0000
2970,"Adventure_Drama",3.3750,4,13.5000
2971,"Drama_Fantasy_Musical",4.0833,6,24.5000
2972,"Drama_War",5.0000,1,5.0000
2973,"Comedy_Crime_Drama",3.9167,18,70.5000
2974,"Horror_Thriller",2.5000,1,2.5000
2975,"Comedy_Drama",3.0000,1,3.0000
2976,"Drama",3.4167,6,20.5000
2977,"Comedy_Drama",3.0000,2,6.0000
2978,"Comedy_Romance",3.0000,4,12.0000
2979,"Drama",3.0000,1,3.0000
2982,"Horror_Thriller",2.0000,1,2.0000
2983,"Thriller",4.0000,1,4.0000
2984,"Documentary",4.5000,1,4.5000
2985,"Action_Crime_Drama_Sci-Fi_Thriller",3.3714,70,236.0000
2986,"Action_Crime_Sci-Fi_Thriller",2.6400,25,66.0000
2987,"Adventure_Animation_Children_Comedy_Crime_Fantasy_Mystery",3.5722,97,346.5000
2988,"Drama",4.0000,3,12.0000
2989,"Action_Adventure_Thriller",3.5476,21,74.5000
2990,"Action_Adventure_Thriller",3.3250,20,66.5000
2991,"Action_Adventure_Thriller",3.6957,23,85.0000
2992,"Horror_Thriller",3.5000,1,3.5000
2993,"Action_Adventure_Thriller",3.4792,24,83.5000
2995,"Horror_Thriller",2.4286,14,34.0000
2996,"Drama",3.1250,4,12.5000
2997,"Comedy_Drama_Fantasy",3.9545,99,391.5000
3000,"Action_Adventure_Animation_Drama_Fantasy",3.9583,48,190.0000
3002,"Documentary",4.0000,1,4.0000
3003,"Comedy_Drama_Romance_War",4.5000,2,9.0000
3004,"Comedy_Romance",2.5455,11,28.0000
3005,"Thriller",2.8400,25,71.0000
3006,"Drama_Thriller",3.7419,31,116.0000
3007,"Documentary",3.7500,6,22.5000
3008,"Drama_Sci-Fi",4.0000,1,4.0000
3010,"Drama",4.0000,1,4.0000
3011,"Drama",3.2500,4,13.0000
3013,"Comedy_Horror",4.0000,1,4.0000
3014,"Comedy",2.0000,1,2.0000
3015,"Thriller",3.6667,3,11.0000
3016,"Horror",3.0714,14,43.0000
3017,"Horror",3.0000,4,12.0000
3018,"Comedy_Horror_Sci-Fi",3.4500,10,34.5000
3019,"Crime_Drama",4.1500,10,41.5000
3020,"Action_Drama",3.5294,17,60.0000
3021,"Horror",2.0000,1,2.0000
3022,"Comedy_War",4.0000,9,36.0000
3024,"Horror_Sci-Fi",2.6429,7,18.5000
3028,"Comedy",2.5000,2,5.0000
3029,"Action_Drama",3.2500,6,19.5000
3030,"Action_Adventure",4.2308,13,55.0000
3031,"Comedy",2.3750,4,9.5000
3032,"Action_Drama_Sci-Fi_Thriller",3.6667,6,22.0000
3033,"Comedy_Sci-Fi",3.4831,59,205.5000
3034,"Adventure_Animation_Children_Comedy_Musical",3.5139,36,126.5000
3035,"Comedy_Drama_War",3.8182,11,42.0000
3036,"Adventure_Drama",3.7857,7,26.5000
3037,"Western",4.1458,24,99.5000
3038,"Drama",4.2000,5,21.0000
3039,"Comedy",3.7308,39,145.5000
3040,"Comedy",3.2222,9,29.0000
3041,"Comedy",2.0833,6,12.5000
3042,"Comedy",2.5000,2,5.0000
3043,"Comedy",1.0000,1,1.0000
3044,"Mystery_Romance_Thriller",3.7692,13,49.0000
3045,"Comedy_Drama",3.6000,5,18.0000
3046,"Comedy_Romance",4.5000,2,9.0000
3048,"Comedy",2.0000,3,6.0000
3051,"Comedy_Drama",2.5000,3,7.5000
3052,"Adventure_Comedy_Fantasy",3.6456,79,288.0000
3053,"Drama_War",3.9091,11,43.0000
3054,"Adventure_Animation_Children_Fantasy_Sci-Fi",2.3125,8,18.5000
3055,"Thriller",3.3333,3,10.0000
3056,"Crime_Drama_Thriller",4.0000,1,4.0000
3057,"Comedy",4.0000,1,4.0000
3060,"Comedy_Drama_Musical",3.8667,15,58.0000
3061,"Comedy_Musical",3.6250,8,29.0000
3062,"Action_Drama_War",4.0000,11,44.0000
3063,"Drama_Thriller",2.1667,6,13.0000
3064,"Drama_Thriller",2.3333,3,7.0000
3066,"Action_Drama_War",3.9286,7,27.5000
3067,"Comedy_Drama",3.5500,10,35.5000
3068,"Drama_Mystery",4.3571,7,30.5000
3070,"Adventure_Comedy_Sci-Fi",3.5476,21,74.5000
3071,"Comedy_Drama",3.5000,9,31.5000
3072,"Comedy_Romance",3.5556,27,96.0000
3073,"Drama_Romance",5.0000,1,5.0000
3074,"Western",4.2500,4,17.0000
3075,"Drama_Horror",4.1667,3,12.5000
3076,"Comedy",3.6250,4,14.5000
3077,"Documentary",4.0000,2,8.0000
3078,"Drama",4.0000,2,8.0000
3079,"Comedy_Drama_Romance",3.0833,6,18.5000
3081,"Fantasy_Horror_Mystery_Romance",3.4758,62,215.5000
3082,"Action_Adventure_Thriller",3.3333,39,130.0000
3083,"Drama",4.1579,19,79.0000
3086,"Children_Comedy_Fantasy_Musical",5.0000,1,5.0000
3087,"Comedy_Fantasy_Romance",3.1667,24,76.0000
3088,"Comedy_Fantasy",3.8333,12,46.0000
3089,"Drama",4.1250,16,66.0000
3090,"Drama",4.1667,6,25.0000
3091,"Drama_War",4.1250,4,16.5000
3093,"Drama_Western",3.7500,4,15.0000
3094,"Drama_Romance",4.0000,2,8.0000
3095,"Drama",4.1111,9,37.0000
3096,"Comedy",5.0000,1,5.0000
3097,"Comedy_Drama_Romance",3.6667,3,11.0000
3098,"Drama",3.6458,24,87.5000
3099,"Comedy_Drama_Romance",3.0714,7,21.5000
3100,"Drama",3.9318,22,86.5000
3101,"Drama_Thriller",3.0972,36,111.5000
3102,"Crime_Romance_Thriller",3.5714,7,25.0000
3103,"Drama_Romance",2.7500,2,5.5000
3104,"Action_Comedy_Crime_Thriller",3.6364,22,80.0000
3105,"Drama_Mystery",3.6818,22,81.0000
3106,"Drama_Romance",1.0000,1,1.0000
3107,"Action_Drama",3.3043,23,76.0000
3108,"Comedy_Drama_Fantasy_Romance",3.8056,36,137.0000
3109,"Drama",3.5000,4,14.0000
3111,"Drama",4.2500,4,17.0000
3112,"Drama",3.0000,1,3.0000
3113,"Action_Fantasy_Horror_Mystery_Thriller",2.7000,15,40.5000
3114,"Adventure_Animation_Children_Comedy_Fantasy",3.8608,97,374.5000
3115,"Drama",4.0000,5,20.0000
3117,"Drama_Romance_War",3.8750,4,15.5000
3120,"Comedy",3.5000,2,7.0000
3125,"Drama",4.0000,1,4.0000
3127,"Comedy_Drama",2.8333,3,8.5000
3129,"Comedy_Drama",3.6667,3,11.0000
3130,"Comedy_Crime_Drama",2.4000,5,12.0000
3132,"Comedy_Drama",2.0000,1,2.0000
3134,"Drama_War",3.7143,7,26.0000
3135,"Drama",3.6667,3,11.0000
3138,"Drama",3.0000,2,6.0000
3141,"Drama",1.2500,2,2.5000
3142,"Documentary_Musical",3.2500,4,13.0000
3143,"Drama_War",3.0000,1,3.0000
3145,"Drama",3.1667,3,9.5000
3146,"Comedy",2.3235,17,39.5000
3147,"Crime_Drama",4.1486,111,460.5000
3148,"Drama",3.7500,26,97.5000
3150,"Drama_Thriller",3.2500,2,6.5000
3152,"Drama",4.5000,8,36.0000
3153,"Action_Adventure_Fantasy",4.4000,5,22.0000
3155,"Drama_Romance",3.6667,9,33.0000
3156,"Drama_Romance_Sci-Fi",2.8000,15,42.0000
3157,"Children_Comedy_Fantasy",2.8421,19,54.0000
3158,"Drama",3.6667,3,11.0000
3159,"Animation_Children_Musical_IMAX",3.8333,15,57.5000
3160,"Drama",3.7115,52,193.0000
3161,"Drama_Romance",3.0000,2,6.0000
3162,"Comedy_Drama",3.0000,1,3.0000
3163,"Comedy_Drama_Musical",3.8750,4,15.5000
3165,"Action_Drama",3.0000,2,6.0000
3167,"Comedy_Drama",3.5000,4,14.0000
3168,"Adventure_Drama",3.6034,29,104.5000
3169,"Crime_Drama_Thriller",3.3000,5,16.5000
3171,"Drama",4.0000,1,4.0000
3173,"Drama",3.0000,18,54.0000
3174,"Comedy_Drama",3.4872,39,136.0000
3175,"Adventure_Comedy_Sci-Fi",3.5800,75,268.5000
3176,"Drama_Mystery_Thriller",3.3367,49,163.5000
3177,"Comedy",3.2500,6,19.5000
3178,"Drama",3.5312,16,56.5000
3179,"Drama",3.3333,3,10.0000
3181,"Drama",3.9167,6,23.5000
3182,"Documentary",4.0000,5,20.0000
3183,"Drama",3.0000,1,3.0000
3185,"Drama",3.3333,3,10.0000
3186,"Drama",3.4643,28,97.0000
3189,"Children_Drama",3.5455,11,39.0000
3190,"Adventure_Sci-Fi_Thriller",2.0000,4,8.0000
3192,"Drama",3.0000,1,3.0000
3194,"Drama_Romance",3.6250,4,14.5000
3196,"Drama_War",3.7222,9,33.5000
3197,"Action_Crime_Romance_Thriller",2.8571,7,20.0000
3198,"Crime_Drama",3.9286,14,55.0000
3200,"Comedy_Drama",4.2500,8,34.0000
3201,"Drama",4.5000,8,36.0000
3203,"Thriller",3.1667,12,38.0000
3204,"Action_Mystery_Thriller",3.6875,8,29.5000
3206,"Romance",2.3333,3,7.0000
3208,"Action_Comedy",2.1875,8,17.5000
3210,"Comedy_Drama_Romance",3.4762,42,146.0000
3211,"Drama",3.7500,2,7.5000
3213,"Animation_Children",4.1154,13,53.5000
3214,"Drama",3.5000,2,7.0000
3217,"Drama",3.5000,3,10.5000
3219,"Mystery_Thriller",3.1923,13,41.5000
3221,"Drama",3.7000,5,18.5000
3223,"Drama",3.0000,2,6.0000
3224,"Drama",4.7500,4,19.0000
3225,"Comedy_Romance",2.0000,4,8.0000
3230,"Thriller",3.8750,4,15.5000
3235,"Comedy",3.6667,3,11.0000
3238,"Thriller",1.5833,6,9.5000
3240,"Comedy",3.2500,2,6.5000
3241,"Comedy",4.5000,2,9.0000
3243,"Comedy",2.4000,15,36.0000
3244,"Comedy_Romance",3.7083,12,44.5000
3246,"Drama",4.1667,15,62.5000
3247,"Comedy_Crime",3.0278,36,109.0000
3248,"Comedy",1.8929,14,26.5000
3249,"Drama_Thriller",3.1111,9,28.0000
3250,"Drama",3.1667,9,28.5000
3251,"Drama_Mystery",3.7000,5,18.5000
3252,"Drama",3.5926,27,97.0000
3253,"Comedy",3.4754,61,212.0000
3254,"Comedy",3.2963,27,89.0000
3255,"Comedy_Drama",3.4667,45,156.0000
3256,"Action_Crime_Drama_Thriller",3.5161,31,109.0000
3257,"Drama_Romance_Thriller",2.8594,32,91.5000
3258,"Comedy_Fantasy",2.8667,15,43.0000
3259,"Adventure_Drama_Romance",3.1364,11,34.5000
3260,"Drama",4.0000,12,48.0000
3261,"Comedy_Drama_Romance",3.1818,11,35.0000
3262,"Crime_Drama_Mystery_Thriller",3.4091,11,37.5000
3263,"Comedy_Drama",3.0455,22,67.0000
3264,"Action_Comedy_Horror",2.4231,26,63.0000
3265,"Action_Crime_Drama_Thriller",4.0000,9,36.0000
3266,"Comedy_Crime_Drama_Thriller",4.5000,6,27.0000
3267,"Action_Crime_Thriller_Western",3.5556,18,64.0000
3268,"Action_Comedy",1.7727,11,19.5000
3269,"Drama_Romance_Sci-Fi",2.8519,27,77.0000
3270,"Comedy_Drama_Romance",2.7917,12,33.5000
3271,"Drama",3.6765,17,62.5000
3272,"Crime_Drama",3.4375,8,27.5000
3273,"Comedy_Horror_Mystery_Thriller",2.6724,29,77.5000
3274,"Drama_Thriller",3.3750,12,40.5000
3275,"Action_Crime_Drama_Thriller",4.2209,43,181.5000
3276,"Comedy",1.0000,1,1.0000
3280,"Horror",1.5000,1,1.5000
3281,"Documentary",2.0000,1,2.0000
3283,"Action",3.2500,2,6.5000
3284,"Comedy_Mystery_Romance",3.0000,1,3.0000
3285,"Adventure_Drama",3.0625,32,98.0000
3286,"Comedy",2.3000,5,11.5000
3287,"Animation_Children",3.1667,3,9.5000
3289,"Drama",4.5000,1,4.5000
3294,"Horror",1.5000,1,1.5000
3295,"Drama",4.0000,1,4.0000
3296,"Drama",4.0714,7,28.5000
3298,"Crime_Drama_Thriller",3.7143,21,78.0000
3299,"Comedy_Drama",2.6667,3,8.0000
3300,"Horror_Sci-Fi_Thriller",3.5641,39,139.0000
3301,"Comedy_Crime",3.5238,42,148.0000
3302,"Comedy",4.7500,2,9.5000
3303,"Documentary",5.0000,1,5.0000
3306,"Comedy",4.1250,4,16.5000
3307,"Comedy_Drama_Romance",3.8462,13,50.0000
3308,"Comedy_Drama",2.8571,7,20.0000
3310,"Comedy_Drama",4.1000,5,20.5000
3313,"Comedy",1.5000,2,3.0000
3315,"Musical",4.5000,1,4.5000
3316,"Action_Thriller",2.4615,13,32.0000
3317,"Comedy_Drama",3.6591,22,80.5000
3323,"Comedy_Crime",4.0000,1,4.0000
3324,"Comedy",1.3333,3,4.0000
3325,"Comedy_Drama",2.1667,3,6.5000
3326,"Comedy_Sci-Fi",3.1667,3,9.5000
3327,"Documentary",3.7000,5,18.5000
3328,"Crime_Drama",4.0526,19,77.0000
3329,"Drama_Romance",4.0000,1,4.0000
3330,"Drama_Romance",4.2500,2,8.5000
3331,"Drama",2.0000,1,2.0000
3334,"Crime_Drama_Film-Noir_Thriller",4.2000,10,42.0000
3341,"Comedy",4.2857,7,30.0000
3342,"Drama_War",3.5000,5,17.5000
3344,"Horror",4.0000,1,4.0000
3345,"Adventure_Children",3.0000,1,3.0000
3347,"Adventure_Drama",4.1667,9,37.5000
3350,"Drama",3.8333,3,11.5000
3353,"Comedy_Romance",4.5000,1,4.5000
3354,"Sci-Fi",2.6905,21,56.5000
3355,"Fantasy_Horror_Mystery_Thriller",3.2000,15,48.0000
3357,"Drama_Romance",4.0000,1,4.0000
3358,"Comedy_Drama_Fantasy_Romance",3.8500,10,38.5000
3359,"Comedy_Drama",4.0909,11,45.0000
3360,"Drama_Romance",3.7045,22,81.5000
3361,"Comedy_Drama_Romance",3.6714,35,128.5000
3362,"Crime_Drama",3.9342,38,149.5000
3363,"Comedy_Drama",3.8488,43,165.5000
3364,"Crime_Film-Noir",3.6667,3,11.0000
3365,"Drama_Western",4.0714,7,28.5000
3368,"Romance_Western",3.2500,2,6.5000
3370,"Drama_Thriller",2.5000,2,5.0000
3372,"Action_War",4.0000,2,8.0000
3374,"Drama",4.0000,1,4.0000
3378,"Drama",4.0000,1,4.0000
3379,"Drama",4.5000,1,4.5000
3384,"Action_Crime",4.5000,4,18.0000
3385,"Comedy",2.8125,8,22.5000
3386,"Drama_Mystery_Thriller",3.5000,31,108.5000
3387,"Comedy_Mystery",2.8571,7,20.0000
3388,"Children_Comedy",2.5455,11,28.0000
3389,"Action_Adventure",2.0000,1,2.0000
3390,"Adventure_Crime_Drama_Romance",2.0000,1,2.0000
3391,"Comedy",2.5000,2,5.0000
3392,"Comedy",2.3333,6,14.0000
3393,"Comedy_Fantasy_Romance",1.3333,3,4.0000
3394,"Comedy_Romance",2.3571,7,16.5000
3395,"Comedy",3.0000,3,9.0000
3396,"Adventure_Children_Comedy_Musical",3.5909,33,118.5000
3397,"Children_Comedy",3.4545,11,38.0000
3398,"Children_Comedy_Musical",3.3333,15,50.0000
3400,"Adventure_Animation_Children_Fantasy",3.0000,1,3.0000
3401,"Adventure_Sci-Fi",2.2000,5,11.0000
3402,"Comedy_Drama_Romance",4.0000,2,8.0000
3403,"Drama_Thriller",4.0000,1,4.0000
3404,"Action_Drama",3.5833,6,21.5000
3405,"Action_Drama",3.0000,1,3.0000
3406,"Action_Adventure_Drama_War",3.0000,3,9.0000
3408,"Drama",3.5286,70,247.0000
3409,"Drama_Thriller",2.9286,35,102.5000
3410,"Comedy_Drama",4.0000,1,4.0000
3412,"Adventure_Children_Drama",3.4167,6,20.5000
3414,"Drama_Romance_War",4.0000,1,4.0000
3415,"Drama",4.1667,3,12.5000
3417,"Adventure_Comedy",3.0000,1,3.0000
3418,"Adventure_Crime_Drama",3.4634,41,142.0000
3420,"Drama_Thriller",3.1667,3,9.5000
3421,"Comedy",3.6935,62,229.0000
3422,"Comedy_Romance",3.3333,6,20.0000
3423,"Drama",2.1667,3,6.5000
3424,"Drama",4.0370,27,109.0000
3425,"Drama_Musical",3.4000,5,17.0000
3426,"Drama_Romance",3.0714,7,21.5000
3428,"Drama",3.0000,1,3.0000
3429,"Animation_Comedy",4.2500,12,51.0000
3430,"Action_Crime_Drama",3.0000,4,12.0000
3431,"Action_Drama",1.6667,3,5.0000
3432,"Action_Drama",1.5000,2,3.0000
3433,"Action_Drama",1.0000,1,1.0000
3434,"Action_Drama",1.0000,1,1.0000
3435,"Crime_Drama_Film-Noir",4.3235,17,73.5000
3436,"Drama_Romance",3.7500,4,15.0000
3438,"Action_Children_Comedy_Fantasy_Sci-Fi",3.0000,25,75.0000
3439,"Action_Children_Fantasy",2.6923,13,35.0000
3440,"Action_Adventure_Children_Comedy_Fantasy",2.0714,14,29.0000
3441,"Action_Drama_War",3.4286,14,48.0000
3442,"Action_Crime_Drama",1.0000,1,1.0000
3444,"Action",2.9444,9,26.5000
3445,"Mystery_Thriller",3.5000,4,14.0000
3446,"Comedy_Drama",2.7500,2,5.5000
3447,"Drama",4.0000,2,8.0000
3448,"Comedy_Drama_War",3.8023,43,163.5000
3449,"Drama",4.0000,1,4.0000
3450,"Comedy",3.2931,29,95.5000
3451,"Drama",4.5455,11,50.0000
3452,"Action_Crime_Romance_Thriller",3.0833,18,55.5000
3453,"Drama_Romance",3.0000,2,6.0000
3454,"Comedy_Romance",2.2500,2,4.5000
3455,"Drama_Thriller",2.5000,1,2.5000
3459,"Drama_Horror",4.0000,1,4.0000
3461,"Adventure_Drama_Thriller",3.0385,13,39.5000
3462,"Comedy_Drama_Romance",3.7200,25,93.0000
3466,"Comedy_Fantasy",3.0000,8,24.0000
3467,"Drama_Western",3.7500,4,15.0000
3468,"Drama",4.3333,18,78.0000
3469,"Drama",4.0833,6,24.5000
3470,"Adventure_Drama",4.3000,5,21.5000
3471,"Adventure_Drama_Sci-Fi",3.7417,60,224.5000
3473,"Comedy",5.0000,2,10.0000
3474,"Sci-Fi_Thriller",4.0000,1,4.0000
3475,"Drama_Romance",4.5000,2,9.0000
3476,"Horror_Mystery",3.5577,26,92.5000
3477,"Comedy_Drama",3.3846,13,44.0000
3478,"Drama",2.7857,7,19.5000
3479,"Adventure_Fantasy_Romance",3.3333,18,60.0000
3480,"Drama_Romance",3.3333,3,10.0000
3481,"Comedy_Drama_Romance",3.6667,75,275.0000
3483,"Animation_Children",3.1154,13,40.5000
3484,"Thriller",2.7500,10,27.5000
3489,"Adventure_Comedy_Fantasy",3.3585,53,178.0000
3492,"Adventure_Comedy_Romance",4.0000,1,4.0000
3494,"Adventure_Drama_Western",4.0000,6,24.0000
3496,"Drama",5.0000,1,5.0000
3497,"Comedy",2.5000,4,10.0000
3498,"Drama",4.0000,8,32.0000
3499,"Drama_Horror_Thriller",3.8409,44,169.0000
3500,"Comedy_Drama",3.0000,4,12.0000
3501,"Comedy_Romance",2.3000,5,11.5000
3502,"Drama",3.5000,3,10.5000
3503,"Drama_Mystery_Sci-Fi",4.0909,11,45.0000
3504,"Comedy_Drama",4.0227,22,88.5000
3505,"Drama_Mystery_Thriller",3.7222,9,33.5000
3506,"Comedy_Drama",3.0000,5,15.0000
3507,"Comedy",4.0667,15,61.0000
3508,"Action_Adventure_Drama_Thriller_Western",4.2500,18,76.5000
3510,"Drama_Thriller",3.4167,36,123.0000
3511,"Comedy",2.2500,6,13.5000
3512,"Drama_Romance",3.5625,8,28.5000
3513,"Drama_Thriller",3.0714,7,21.5000
3514,"Drama",3.0000,1,3.0000
3515,"Comedy_Romance",3.6111,9,32.5000
3516,"Comedy_Fantasy_Romance",3.3750,4,13.5000
3519,"Action_Drama_War",2.9167,6,17.5000
3521,"Comedy_Drama",3.4286,7,24.0000
3524,"Comedy_Romance",2.8000,10,28.0000
3525,"Comedy",2.9000,5,14.5000
3526,"Comedy_Drama",3.7000,15,55.5000
3527,"Action_Sci-Fi_Thriller",3.5820,61,218.5000
3528,"Drama_Romance",3.4000,5,17.0000
3529,"Crime_Thriller",3.5000,5,17.5000
3531,"Comedy_Drama_Romance",5.0000,1,5.0000
3534,"Drama",3.3000,25,82.5000
3535,"Crime_Horror_Mystery_Thriller",3.7881,59,223.5000
3536,"Comedy_Drama_Romance",3.4524,21,72.5000
3537,"Comedy_Drama",3.3333,3,10.0000
3538,"Comedy",3.2000,5,16.0000
3539,"Documentary",3.2500,2,6.5000
3543,"Comedy_Drama",3.7500,14,52.5000
3544,"Comedy",2.3333,3,7.0000
3545,"Drama_Musical",3.0000,5,15.0000
3546,"Drama_Horror_Thriller",4.5000,2,9.0000
3548,"Comedy_Drama",3.7000,5,18.5000
3549,"Comedy_Musical_Romance",3.9375,8,31.5000
3550,"Horror",3.6667,6,22.0000
3551,"Crime_Drama_Thriller",3.4615,13,45.0000
3552,"Comedy",3.8269,52,199.0000
3553,"Drama_Thriller",2.4000,5,12.0000
3554,"Drama_Romance",3.0000,3,9.0000
3555,"Action_Thriller_War",3.4242,33,113.0000
3556,"Drama_Romance",3.7692,26,98.0000
3557,"Mystery_Thriller",2.9000,5,14.5000
3559,"Comedy_Drama_Romance",3.6667,3,11.0000
3563,"Action_Horror",2.5000,3,7.5000
3564,"Children_Comedy",1.6250,12,19.5000
3565,"Comedy_Drama",3.5000,7,24.5000
3566,"Comedy_Drama",2.8750,8,23.0000
3567,"Comedy_Drama_Romance",5.0000,1,5.0000
3568,"Comedy_Romance",4.0000,1,4.0000
3569,"Comedy_Drama",4.0000,2,8.0000
3571,"Comedy_Drama",3.0000,2,6.0000
3572,"Horror_Sci-Fi",2.0000,4,8.0000
3573,"Horror_Sci-Fi",1.5000,2,3.0000
3574,"Horror_Sci-Fi",1.0000,1,1.0000
3576,"Action_Horror_Sci-Fi",3.5000,4,14.0000
3577,"Drama_Romance",2.0000,2,4.0000
3578,"Action_Adventure_Drama",3.9382,170,669.5000
3580,"Drama",3.5000,2,7.0000
3581,"Comedy",3.5000,2,7.0000
3584,"Action_Drama_Romance_Thriller",2.0000,4,8.0000
3586,"Drama_Romance",4.0000,1,4.0000
3587,"Horror",2.5000,2,5.0000
3590,"Comedy_Drama",2.0000,1,2.0000
3591,"Comedy_Drama",2.7333,15,41.0000
3592,"Animation_Sci-Fi",4.5000,1,4.5000
3593,"Action_Sci-Fi",1.6579,19,31.5000
3594,"Drama_Musical",3.2500,6,19.5000
3596,"Comedy",1.0000,1,1.0000
3597,"Comedy",2.0000,2,4.0000
3598,"Crime_Drama_Romance_Thriller",3.0000,3,9.0000
3599,"Comedy_Musical",3.2000,5,16.0000
3604,"Musical",0.5000,1,0.5000
3606,"Comedy_Musical_Romance",3.7500,4,15.0000
3608,"Adventure_Comedy",2.9400,25,73.5000
3609,"Documentary",3.5000,1,3.5000
3614,"Comedy_Romance",2.9375,8,23.5000
3615,"Adventure_Animation_Children",3.1071,14,43.5000
3616,"Comedy_Romance",3.3000,10,33.0000
3617,"Comedy",3.0854,41,126.5000
3618,"Comedy_Crime",3.5417,12,42.5000
3619,"Comedy",2.0000,1,2.0000
3622,"Comedy",3.0000,1,3.0000
3623,"Action_Adventure_Thriller",2.7143,77,209.0000
3624,"Action_Adventure_Comedy_Western",3.1512,43,135.5000
3625,"Documentary",2.0000,1,2.0000
3626,"Comedy",3.3333,3,10.0000
3627,"Horror_Thriller",3.8750,4,15.5000
3628,"Action_Drama_Romance_War",3.0000,2,6.0000
3629,"Adventure_Comedy_Romance",4.0714,7,28.5000
3632,"Comedy_Crime",4.0000,5,20.0000
3633,"Action_Adventure_Romance_Thriller",3.2647,17,55.5000
3634,"Thriller",4.0000,1,4.0000
3635,"Action_Adventure_Thriller",3.4444,18,62.0000
3637,"Drama",5.0000,1,5.0000
3638,"Action_Adventure_Sci-Fi_Thriller",3.1346,26,81.5000
3639,"Action_Adventure_Thriller",3.5833,18,64.5000
3640,"Comedy_Drama",4.0000,1,4.0000
3641,"Drama",4.0000,2,8.0000
3643,"Action_Drama_War",3.5000,2,7.0000
3646,"Comedy",2.1765,17,37.0000
3648,"Horror_Sci-Fi",4.0000,1,4.0000
3649,"Drama",2.6875,8,21.5000
3652,"Horror",3.0000,1,3.0000
3653,"Documentary",4.1667,3,12.5000
3654,"Action_Adventure_Drama_War",3.7692,13,49.0000
3655,"Drama",4.2500,2,8.5000
3658,"Horror_Sci-Fi",3.0000,1,3.0000
3660,"Horror_Sci-Fi_Thriller",2.0000,2,4.0000
3661,"Horror_Sci-Fi_Thriller",3.0000,1,3.0000
3662,"Horror_Sci-Fi_Thriller",3.0000,2,6.0000
3663,"Horror_Sci-Fi_Thriller",2.0000,1,2.0000
3664,"Horror_Sci-Fi_Thriller",2.0000,1,2.0000
3667,"Action_Comedy_Crime",1.0000,1,1.0000
3668,"Drama_Romance",3.6667,15,55.0000
3669,"Comedy",2.5000,1,2.5000
3671,"Comedy_Western",3.9355,62,244.0000
3672,"Adventure_Children",3.8000,5,19.0000
3673,"Adventure_Children",4.5000,2,9.0000
3674,"Adventure_Children_Comedy_Drama",4.0000,1,4.0000
3675,"Comedy_Musical_Romance",4.1875,8,33.5000
3676,"Drama_Horror",3.7500,10,37.5000
3677,"Documentary",4.1250,4,16.5000
3678,"Drama",5.0000,1,5.0000
3679,"Documentary_Musical",3.7500,2,7.5000
3680,"Documentary",3.0000,1,3.0000
3681,"Action_Drama_Thriller_Western",4.1515,33,137.0000
3682,"Action_Crime_Drama_Thriller",3.7000,5,18.5000
3683,"Crime_Drama_Film-Noir",4.0000,19,76.0000
3684,"Drama_Romance",3.0714,7,21.5000
3685,"Comedy_Drama_Romance",3.7778,9,34.0000
3686,"Horror_Sci-Fi_Thriller",2.9333,15,44.0000
3687,"Adventure_Animation_Fantasy_Sci-Fi",5.0000,1,5.0000
3688,"Comedy",2.1364,11,23.5000
3689,"Comedy",1.7500,4,7.0000
3690,"Comedy",2.0000,5,10.0000
3691,"Comedy",3.0000,1,3.0000
3692,"Comedy_Horror",3.0000,1,3.0000
3693,"Comedy_Horror",2.1250,8,17.0000
3694,"Comedy_Horror",2.0000,2,4.0000
3695,"Comedy_Horror",2.0000,2,4.0000
3696,"Comedy_Horror_Sci-Fi_Thriller",3.1667,3,9.5000
3697,"Action_Sci-Fi_Thriller",2.9048,21,61.0000
3698,"Action_Sci-Fi",3.2206,34,109.5000
3699,"Adventure_Drama_Romance_Sci-Fi",3.1538,13,41.0000
3700,"Drama_Sci-Fi",2.5000,1,2.5000
3701,"Crime_Drama_Sci-Fi_Thriller",3.1154,13,40.5000
3702,"Action_Adventure_Sci-Fi",3.4868,38,132.5000
3703,"Action_Adventure_Sci-Fi_Thriller",4.0375,40,161.5000
3704,"Action_Adventure_Sci-Fi",3.2708,24,78.5000
3705,"Action_Comedy_Romance",2.3125,8,18.5000
3706,"Film-Noir_Horror_Mystery_Thriller",3.0000,8,24.0000
3707,"Drama_Romance",2.7000,10,27.0000
3708,"Horror_Thriller",3.0500,10,30.5000
3709,"Horror",2.0000,1,2.0000
3710,"Action_Comedy_Crime_Thriller",1.6667,3,5.0000
3711,"Drama",4.0000,1,4.0000
3712,"Comedy",2.8333,3,8.5000
3713,"Drama",4.0000,1,4.0000
3714,"Drama",2.5000,1,2.5000
3715,"Comedy_Crime",2.7500,2,5.5000
3716,"Action_Comedy_Crime_Drama",1.0000,1,1.0000
3717,"Action_Crime",3.2213,61,196.5000
3719,"Comedy_Romance",3.0000,2,6.0000
3720,"Drama",4.0000,1,4.0000
3723,"Drama",3.8000,5,19.0000
3724,"Drama_War",3.3000,5,16.5000
3725,"Animation_Musical",3.5000,2,7.0000
3726,"Action_Thriller",3.6000,5,18.0000
3727,"Horror_Western",4.3125,8,34.5000
3728,"Crime_Drama_Film-Noir_Thriller",3.7500,4,15.0000
3729,"Action_Crime_Drama_Thriller",4.0000,3,12.0000
3730,"Drama_Mystery",4.2059,17,71.5000
3731,"Drama_Thriller",3.0000,1,3.0000
3732,"Horror",3.0000,4,12.0000
3733,"Drama",3.8333,3,11.5000
3735,"Crime_Drama",3.7941,17,64.5000
3736,"Drama",3.0000,1,3.0000
3737,"Drama_Western",4.0000,1,4.0000
3738,"Drama",3.0000,2,6.0000
3739,"Comedy_Romance",3.5000,1,3.5000
3740,"Action_Adventure_Comedy_Fantasy",3.8571,28,108.0000
3741,"Crime_Drama_Thriller",4.0909,11,45.0000
3742,"Drama_War",3.6500,10,36.5000
3743,"Comedy_Romance",2.0000,3,6.0000
3744,"Action_Crime_Thriller",2.6579,19,50.5000
3745,"Action_Adventure_Animation_Children_Sci-Fi",3.4138,29,99.0000
3746,"Drama",4.0000,2,8.0000
3747,"Drama",3.5000,2,7.0000
3751,"Animation_Children_Comedy",3.5513,78,277.0000
3752,"Adventure_Comedy",3.0870,46,142.0000
3753,"Action_Drama_War",3.4485,68,234.5000
3754,"Adventure_Animation_Children_Comedy_Fantasy",2.2222,9,20.0000
3755,"Drama_Thriller",3.1705,44,139.5000
3756,"Drama",4.0000,1,4.0000
3758,"Drama_Sci-Fi_Thriller",3.5000,2,7.0000
3760,"Comedy",3.5000,3,10.5000
3761,"Action_Crime_Drama_Thriller",4.0000,1,4.0000
3763,"Action_Crime_Thriller",3.2188,16,51.5000
3764,"Action_Crime_Thriller",2.3000,5,11.5000
3765,"Crime_Drama_Romance",3.0000,2,6.0000
3766,"Action_War",2.0833,6,12.5000
3767,"Action_War",1.6667,3,5.0000
3768,"Action_War",1.2500,2,2.5000
3769,"Action",3.3333,3,10.0000
3770,"Horror_Sci-Fi_Thriller",2.6667,6,16.0000
3771,"Action_Adventure_Fantasy",4.0000,3,12.0000
3773,"Comedy",2.0000,2,4.0000
3774,"Comedy_Drama_Romance",0.7500,4,3.0000
3783,"Crime_Drama",3.9545,11,43.5000
3784,"Comedy_Fantasy",2.5909,11,28.5000
3785,"Comedy_Horror",2.9200,50,146.0000
3786,"Comedy",2.6250,4,10.5000
3787,"Comedy",4.0000,2,8.0000
3788,"Drama_Mystery",3.6667,6,22.0000
3789,"Drama",3.5000,1,3.5000
3790,"Drama",4.0000,2,8.0000
3791,"Drama",3.1875,16,51.0000
3792,"Drama_Romance_Western",5.0000,1,5.0000
3793,"Action_Adventure_Sci-Fi",3.6992,133,492.0000
3794,"Comedy_Drama",2.5000,2,5.0000
3795,"Drama",5.0000,1,5.0000
3797,"Thriller",2.6667,3,8.0000
3798,"Drama_Horror_Mystery",3.2000,25,80.0000
3799,"Animation_Children",1.5833,6,9.5000
3801,"Drama_Mystery",4.0000,4,16.0000
3802,"Action_Sci-Fi",2.0000,4,8.0000
3806,"Western",3.0000,1,3.0000
3807,"Adventure_Fantasy",3.0000,1,3.0000
3808,"Drama_War",4.0000,1,4.0000
3809,"Comedy",3.2714,35,114.5000
3810,"Drama_Thriller",3.0000,3,9.0000
3811,"Drama_War",3.9286,7,27.5000
3812,"Comedy",3.4583,12,41.5000
3813,"Drama",4.1667,3,12.5000
3814,"Comedy",4.2222,9,38.0000
3816,"Drama",4.0000,1,4.0000
3819,"Comedy",4.0000,3,12.0000
3821,"Comedy",2.2812,16,36.5000
3822,"Drama_Romance",4.1250,4,16.5000
3823,"Drama",4.0000,2,8.0000
3824,"Drama_Romance",2.4091,11,26.5000
3825,"Comedy_Drama_Romance",2.7414,29,79.5000
3826,"Horror_Sci-Fi_Thriller",2.2949,39,89.5000
3827,"Action_Adventure_Comedy_Sci-Fi",2.8913,23,66.5000
3830,"Comedy_Horror_Thriller",1.5000,2,3.0000
3831,"Comedy",3.9091,11,43.0000
3832,"Horror",4.0000,1,4.0000
3833,"Horror_Sci-Fi",1.5000,2,3.0000
3834,"Adventure_Drama_Romance",3.0000,2,6.0000
3835,"Thriller",2.1667,6,13.0000
3836,"Action_Comedy_War",4.1333,15,62.0000
3837,"Action_Fantasy_Horror_Sci-Fi_Thriller",2.5000,3,7.5000
3838,"Horror",2.0000,1,2.0000
3839,"Horror",1.6667,3,5.0000
3840,"Horror",2.4000,5,12.0000
3841,"Action_Comedy",2.8333,6,17.0000
3843,"Horror",2.3750,4,9.5000
3844,"Drama",3.3333,9,30.0000
3845,"Drama",4.0000,1,4.0000
3846,"Comedy",3.6250,4,14.5000
3847,"Horror",2.0000,1,2.0000
3849,"Horror_Mystery_Thriller",4.0000,2,8.0000
3851,"Comedy",5.0000,1,5.0000
3852,"Comedy",3.3846,13,44.0000
3855,"Drama_Romance",4.7500,2,9.5000
3857,"Thriller",4.0000,1,4.0000
3858,"Comedy",3.5000,5,17.5000
3859,"Documentary",3.7500,2,7.5000
3861,"Comedy",2.6842,19,51.0000
3862,"Comedy",3.7500,2,7.5000
3863,"Drama_Horror_Thriller",3.0444,45,137.0000
3864,"Action_Adventure_Sci-Fi",2.1000,5,10.5000
3865,"Comedy_Documentary",3.2500,4,13.0000
3868,"Action_Comedy_Crime_Romance",3.4048,42,143.0000
3869,"Comedy",3.4231,26,89.0000
3870,"Drama",3.0000,1,3.0000
3871,"Drama_Western",3.9000,5,19.5000
3872,"Drama",3.5000,1,3.5000
3873,"Comedy_Western",3.1429,7,22.0000
3877,"Action_Adventure_Fantasy",2.2222,9,20.0000
3879,"Action_Thriller",2.0000,2,4.0000
3882,"Comedy",2.6912,34,91.5000
3884,"Comedy",1.5000,3,4.5000
3888,"Drama_Romance",4.0000,1,4.0000
3889,"Action_Adventure_Fantasy",2.2500,6,13.5000
3893,"Comedy_Crime_Drama_Romance_Thriller",3.3421,19,63.5000
3894,"Drama",4.0000,1,4.0000
3895,"Crime_Thriller",1.5000,1,1.5000
3896,"Crime_Thriller",3.1250,8,25.0000
3897,"Drama",3.8675,83,321.0000
3898,"Action_Comedy",2.5000,2,5.0000
3899,"Crime_Drama_Thriller",1.0000,1,1.0000
3900,"Comedy_Drama",4.0000,1,4.0000
3901,"Comedy_Drama",3.2500,2,6.5000
3906,"Crime_Thriller",2.5000,2,5.0000
3908,"Horror",1.5000,3,4.5000
3909,"Comedy_Romance",2.0000,4,8.0000
3910,"Drama_Musical",3.9750,20,79.5000
3911,"Comedy",3.6887,53,195.5000
3912,"Comedy_Drama",2.5000,2,5.0000
3914,"Drama",4.0000,1,4.0000
3915,"Drama",3.6667,6,22.0000
3916,"Drama",3.7439,41,153.5000
3917,"Horror",3.3667,15,50.5000
3918,"Horror",3.2778,9,29.5000
3919,"Horror",2.5000,1,2.5000
3920,"Drama_Fantasy_Mystery_Romance",4.0000,1,4.0000
3922,"Comedy",1.0000,1,1.0000
3925,"Comedy_Drama",3.9167,6,23.5000
3926,"Adventure_Sci-Fi",3.0000,1,3.0000
3927,"Adventure_Sci-Fi",2.6667,6,16.0000
3928,"Comedy_Horror",3.7500,4,15.0000
3929,"Comedy",2.5000,2,5.0000
3930,"Adventure_Horror_Sci-Fi",2.1250,4,8.5000
3932,"Horror_Sci-Fi",3.5000,2,7.0000
3933,"Horror_Sci-Fi",0.5000,1,0.5000
3937,"Sci-Fi_Thriller",2.6250,4,10.5000
3938,"Horror",2.7500,2,5.5000
3939,"Horror",5.0000,1,5.0000
3940,"Horror",5.0000,1,5.0000
3941,"Horror",5.0000,1,5.0000
3942,"Horror",5.0000,1,5.0000
3943,"Comedy",2.9375,8,23.5000
3945,"Adventure_Animation_Children",3.0000,1,3.0000
3946,"Action_Drama_Thriller",2.5000,5,12.5000
3947,"Action_Crime_Drama_Thriller",3.3333,3,10.0000
3948,"Comedy",3.4176,91,311.0000
3949,"Drama",3.9219,96,376.5000
3950,"Drama",3.5625,8,28.5000
3951,"Drama",5.0000,1,5.0000
3952,"Drama_Thriller",3.0714,7,21.5000
3953,"Comedy_Romance",2.1250,4,8.5000
3955,"Comedy",1.5833,6,9.5000
3957,"Action_Drama",2.6667,3,8.0000
3958,"Drama",2.0000,1,2.0000
3959,"Action_Adventure_Sci-Fi",3.6250,8,29.0000
3962,"Comedy_Horror",1.5000,1,1.5000
3963,"Musical",3.7500,2,7.5000
3964,"Animation_Children",3.0000,3,9.0000
3965,"Drama_Film-Noir",3.5000,1,3.5000
3966,"Crime_Film-Noir",3.5000,2,7.0000
3967,"Drama",3.8514,37,142.5000
3968,"Comedy",3.0741,27,83.0000
3969,"Drama",3.4423,26,89.5000
3971,"Comedy_Mystery",2.7500,2,5.5000
3972,"Action_Comedy",4.1250,16,66.0000
3973,"Crime_Horror_Mystery_Thriller",1.1250,4,4.5000
3974,"Adventure_Children",3.0000,1,3.0000
3977,"Action_Comedy",2.7222,72,196.0000
3978,"Drama_Romance",3.0667,15,46.0000
3979,"Comedy",2.5000,24,60.0000
3980,"Drama",3.3929,14,47.5000
3981,"Action_Sci-Fi_Thriller",2.3462,13,30.5000
3983,"Drama_Romance",4.1667,9,37.5000
3984,"Action_Adventure_Thriller",3.5000,21,73.5000
3985,"Drama_War",3.2500,6,19.5000
3986,"Action_Sci-Fi_Thriller",2.8000,20,56.0000
3987,"Drama_Romance",2.4167,6,14.5000
3988,"Children_Comedy_Fantasy",3.0455,33,100.5000
3989,"Documentary",4.0000,2,8.0000
3990,"Animation_Children_Comedy",2.2500,4,9.0000
3991,"Children_Comedy",2.7778,9,25.0000
3992,"Drama_Romance_War",3.7000,5,18.5000
3993,"Drama_Romance",3.0000,6,18.0000
3994,"Drama_Sci-Fi",3.4795,73,254.0000
3996,"Action_Drama_Romance",3.8364,110,422.0000
3997,"Action_Adventure_Comedy_Fantasy",1.8333,12,22.0000
3998,"Drama",3.0417,12,36.5000
3999,"Action_Adventure",2.6071,14,36.5000
4000,"Adventure_Drama",3.0000,3,9.0000
4002,"Comedy",3.8519,27,104.0000
4003,"Comedy",3.3333,3,10.0000
4005,"Action_Adventure_Thriller",3.2917,12,39.5000
4006,"Adventure_Animation_Children_Sci-Fi",3.3571,7,23.5000
4007,"Drama",3.7500,20,75.0000
4008,"Drama_War",3.5385,13,46.0000
4009,"Drama",3.0000,2,6.0000
4010,"Comedy",2.9375,8,23.5000
4011,"Comedy_Crime_Thriller",4.1559,93,386.5000
4012,"Comedy_Drama",2.5000,4,10.0000
4014,"Drama_Romance",3.5213,47,165.5000
4015,"Comedy_Sci-Fi",2.7273,33,90.0000
4016,"Adventure_Animation_Children_Comedy_Fantasy",3.7162,37,137.5000
4017,"Drama",3.5357,14,49.5000
4018,"Comedy_Romance",3.1389,54,169.5000
4019,"Drama",3.7143,28,104.0000
4020,"Thriller",2.9231,13,38.0000
4021,"Drama",4.3000,5,21.5000
4022,"Drama",3.7000,100,370.0000
4023,"Comedy_Drama_Romance",3.1304,23,72.0000
4024,"Romance",2.1667,3,6.5000
4025,"Comedy_Crime",3.0547,64,195.5000
4027,"Adventure_Comedy_Crime",3.8085,94,358.0000
4029,"Comedy_Drama",3.8750,12,46.5000
4030,"Horror",1.8000,5,9.0000
4031,"Drama_Romance_Western",2.5000,2,5.0000
4032,"Comedy",4.0000,1,4.0000
4033,"Drama_Thriller_War",3.9231,13,51.0000
4034,"Crime_Drama_Thriller",3.9000,70,273.0000
4035,"Romance_Western",2.8333,3,8.5000
4036,"Drama_Horror",3.1364,11,34.5000
4037,"Crime_Film-Noir_Mystery_Thriller",3.8125,8,30.5000
4039,"Children_Musical",3.1250,16,50.0000
4040,"Comedy",2.3462,13,30.5000
4041,"Drama_Romance",3.6429,14,51.0000
4042,"Action_Drama_War_Western",3.3750,4,13.5000
4043,"Crime_Drama",3.3333,3,10.0000
4046,"Drama",4.0000,1,4.0000
4047,"Drama_War",3.6667,9,33.0000
4051,"Horror_Sci-Fi",0.5000,1,0.5000
4052,"Crime_Drama_Thriller",3.5625,8,28.5000
4053,"Action_Comedy",2.5000,2,5.0000
4054,"Drama_Romance",2.8438,16,45.5000
4055,"Drama",4.0000,2,8.0000
4056,"Crime_Drama_Mystery_Thriller",3.2857,7,23.0000
4061,"Drama_Romance",4.0000,2,8.0000
4062,"Comedy_Drama_Romance",3.3750,8,27.0000
4063,"Comedy_Drama_Romance",2.5000,4,10.0000
4064,"Action_Crime_Thriller",3.5000,1,3.5000
4065,"Action_Crime_Drama",2.5000,1,2.5000
4066,"Action_Comedy",2.8750,4,11.5000
4067,"Drama_Romance",3.3750,4,13.5000
4068,"Comedy",2.7143,7,19.0000
4069,"Comedy_Romance",2.9091,22,64.0000
4074,"Drama",3.0000,1,3.0000
4077,"Drama_Thriller",4.5000,2,9.0000
4078,"Drama",4.0000,1,4.0000
4079,"Comedy_Sci-Fi",4.2500,2,8.5000
4080,"Comedy",3.2500,2,6.5000
4081,"Comedy",1.8333,3,5.5000
4082,"Comedy_Drama_Romance",3.5000,2,7.0000
4083,"Thriller",4.0000,1,4.0000
4084,"Action_Comedy_Crime_Thriller",2.8684,19,54.5000
4085,"Action_Comedy_Crime_Drama",3.4022,46,156.5000
4086,"Action_Crime_Mystery_Romance_Thriller",3.5000,5,17.5000
4089,"Comedy",2.0000,1,2.0000
4090,"Animation_Children",3.5625,8,28.5000
4091,"Comedy_Romance",3.2500,4,13.0000
4092,"Romance_Sci-Fi",2.2500,2,4.5000
4093,"Thriller",1.5000,1,1.5000
4102,"Comedy_Documentary",3.5000,6,21.0000
4103,"Action_Adventure_Drama_War",3.9500,10,39.5000
4104,"Comedy",1.4000,5,7.0000
4105,"Fantasy_Horror_Thriller",3.8182,22,84.0000
4109,"Drama_Thriller",2.5714,7,18.0000
4110,"Thriller",3.0000,1,3.0000
4111,"Drama_War",3.0000,1,3.0000
4113,"Drama",3.0000,2,6.0000
4115,"Comedy",2.0000,1,2.0000
4116,"Comedy",5.0000,1,5.0000
4117,"Drama",4.3333,3,13.0000
4121,"Action_Adventure_Comedy_Sci-Fi",3.1250,12,37.5000
4123,"Comedy",2.0000,1,2.0000
4124,"Horror_Thriller",1.2500,4,5.0000
4125,"Comedy_Sci-Fi",0.7500,2,1.5000
4126,"Drama",3.5000,4,14.0000
4127,"Comedy",1.6667,3,5.0000
4128,"Comedy_Horror_Thriller",3.7115,26,96.5000
4129,"Fantasy_Romance",1.0000,1,1.0000
4130,"Comedy_Fantasy",1.8333,3,5.5000
4131,"Comedy_Romance_Sci-Fi",1.8333,3,5.5000
4132,"Comedy_Romance",2.6250,8,21.0000
4133,"Action_Adventure_Fantasy_Sci-Fi",2.5625,8,20.5000
4135,"Adventure_Comedy_Horror",5.0000,1,5.0000
4138,"Comedy_Horror",1.0000,2,2.0000
4139,"Crime_Drama",3.0000,1,3.0000
4141,"Comedy_Romance",2.5000,4,10.0000
4142,"Action_Adventure_Drama_Thriller",4.2500,2,8.5000
4143,"Horror_Mystery",3.5000,1,3.5000
4144,"Drama_Romance",4.2143,14,59.0000
4146,"Drama_Mystery_Romance",3.0000,3,9.0000
4147,"Comedy_Drama_Romance",4.0000,2,8.0000
4148,"Horror_Thriller",2.9359,39,114.5000
4149,"Comedy_Romance",2.7727,11,30.5000
4152,"Drama",4.2500,2,8.5000
4153,"Comedy_Fantasy_Romance",2.4167,12,29.0000
4154,"Animation_Children",4.0000,2,8.0000
4155,"Drama_Romance",3.3125,8,26.5000
4156,"Comedy",2.0000,1,2.0000
4157,"Comedy_Drama_Fantasy_Romance",4.5000,1,4.5000
4158,"Animation_Comedy_Fantasy",2.0833,6,12.5000
4159,"Action_Thriller",2.7143,7,19.0000
4160,"Drama_Romance",4.1250,4,16.5000
4161,"Action_Comedy",3.3478,23,77.0000
4164,"Drama",3.5000,2,7.0000
4166,"Action_Drama",2.5000,2,5.0000
4167,"Thriller",3.0000,10,30.0000
4168,"Comedy_Romance",2.7500,4,11.0000
4171,"Documentary",4.0000,1,4.0000
4174,"Drama",3.0000,1,3.0000
4175,"Comedy_Drama",3.6250,4,14.5000
4178,"Drama",3.5000,6,21.0000
4180,"Action_Drama",5.0000,1,5.0000
4181,"Comedy",2.0000,1,2.0000
4184,"Comedy_Drama_Romance",4.0000,1,4.0000
4187,"Drama",3.8333,3,11.5000
4189,"Drama",2.5000,1,2.5000
4190,"Drama",4.0000,2,8.0000
4191,"Comedy_Drama_Romance",3.2500,4,13.0000
4193,"Musical",4.0000,2,8.0000
4195,"Horror_Mystery",3.8333,3,11.5000
4197,"Comedy",3.0000,1,3.0000
4198,"Sci-Fi",3.0000,1,3.0000
4200,"Action",3.2500,2,6.5000
4202,"Drama",3.0000,1,3.0000
4203,"Action_Crime_Drama",3.1667,6,19.0000
4204,"Comedy",1.0000,1,1.0000
4205,"Comedy_Drama_Romance",3.1667,6,19.0000
4207,"Action_Adventure_War",2.0000,3,6.0000
4210,"Action_Crime_Drama_Horror_Thriller",3.9167,6,23.5000
4211,"Drama",3.7500,6,22.5000
4212,"Crime_Mystery",3.0000,1,3.0000
4214,"Comedy",2.8846,13,37.5000
4215,"Comedy",2.0833,6,12.5000
4217,"Documentary",4.2500,2,8.5000
4218,"Crime_Drama",3.5000,1,3.5000
4219,"Comedy",3.3333,3,10.0000
4220,"Comedy",3.4000,5,17.0000
4221,"Comedy",2.6250,4,10.5000
4223,"Drama_War",3.5125,40,140.5000
4224,"Action_Thriller",2.7500,2,5.5000
4225,"Comedy",4.0000,7,28.0000
4226,"Mystery_Thriller",4.1226,159,655.5000
4228,"Comedy_Crime_Romance",2.1500,10,21.5000
4229,"Comedy_Romance",2.1250,4,8.5000
4231,"Comedy_Romance",3.5000,5,17.5000
4232,"Action_Adventure_Children_Comedy",2.9464,28,82.5000
4233,"Comedy",2.0000,6,12.0000
4234,"Drama_Thriller",3.2000,5,16.0000
4235,"Drama_Thriller",3.9348,23,90.5000
4236,"Documentary",3.5000,1,3.5000
4237,"Documentary",4.0000,1,4.0000
4238,"Action_Crime_Mystery_Thriller",3.1471,17,53.5000
4239,"Crime_Drama",3.8137,51,194.5000
4240,"Comedy_Fantasy",2.0000,1,2.0000
4241,"Animation_Children",2.1000,5,10.5000
4242,"Comedy_Crime_Drama_Thriller",2.0000,1,2.0000
4243,"Crime_Drama_Mystery",4.0000,1,4.0000
4246,"Comedy_Drama_Romance",3.6231,65,235.5000
4247,"Adventure_Comedy_Mystery_Romance",2.3810,21,50.0000
4248,"Comedy",1.7500,6,10.5000
4251,"Drama_Thriller",2.0000,1,2.0000
4252,"Drama",3.2500,2,6.5000
4254,"Comedy_Drama",2.1923,13,28.5000
4255,"Comedy",2.2000,10,22.0000
4256,"Drama",3.6667,3,11.0000
4259,"Drama_Romance",3.5000,4,14.0000
4260,"Drama",2.0000,1,2.0000
4262,"Action_Crime_Drama",3.9328,67,263.5000
4263,"Drama",4.0000,2,8.0000
4265,"Action_Thriller",3.0000,5,15.0000
4267,"Comedy",3.4000,5,17.0000
4268,"Comedy",2.5000,2,5.0000
4270,"Action_Adventure_Comedy_Thriller",3.0889,45,139.0000
4273,"Drama",4.5000,2,9.0000
4275,"Action_Adventure_Fantasy_Sci-Fi",2.9000,5,14.5000
4276,"Comedy",2.5000,2,5.0000
4278,"Documentary",4.1667,3,12.5000
4280,"Comedy_Drama_Romance",3.5556,9,32.0000
4282,"Drama_Fantasy",3.5000,1,3.5000
4284,"Comedy",3.0000,1,3.0000
4285,"Comedy_Romance",2.8333,3,8.5000
4289,"Comedy_Drama",2.8333,3,8.5000
4290,"Comedy_Drama_Musical",2.0000,1,2.0000
4291,"Comedy_Crime",2.7273,11,30.0000
4292,"Drama",3.5000,2,7.0000
4293,"Comedy",2.5000,4,10.0000
4294,"Children_Fantasy_Musical",4.0000,2,8.0000
4296,"Drama_Romance",3.0000,2,6.0000
4297,"Drama",3.7500,2,7.5000
4298,"Crime_Film-Noir_Thriller",4.7500,2,9.5000
4299,"Action_Comedy_Romance",3.3415,41,137.0000
4300,"Drama",4.0000,3,12.0000
4304,"Documentary",3.6000,5,18.0000
4305,"Romance_Thriller",1.6250,4,6.5000
4306,"Adventure_Animation_Children_Comedy_Fantasy_Romance",3.8676,170,657.5000
4307,"Comedy_Romance",4.5000,1,4.5000
4308,"Drama_Musical_Romance",3.5909,55,197.5000
4310,"Action_Drama_Romance_War",2.9651,43,127.5000
4312,"Adventure_Drama",3.5000,2,7.0000
4313,"Drama",3.5000,2,7.0000
4316,"Drama",2.0000,2,4.0000
4317,"Comedy_Romance",2.5000,3,7.5000
4321,"Comedy_Western",3.3710,31,104.5000
4322,"Drama",3.7500,10,37.5000
4323,"Adventure_War_Western",4.0000,1,4.0000
4325,"Drama",4.0000,1,4.0000
4326,"Crime_Drama_Thriller",3.5909,11,39.5000
4327,"Adventure_Western",3.5938,16,57.5000
4329,"Western",3.6667,3,11.0000
4333,"Comedy_Crime",3.2000,10,32.0000
4334,"Drama",4.6000,5,23.0000
4337,"Drama_Romance_War",3.5000,2,7.0000
4338,"Drama_War",4.5000,1,4.5000
4339,"Action_Adventure_Drama_War",3.7500,4,15.0000
4340,"Comedy",2.1364,11,23.5000
4342,"Drama_Romance",4.5000,1,4.5000
4343,"Comedy_Sci-Fi",3.0370,27,82.0000
4344,"Action_Crime_Drama",3.1029,34,105.5000
4345,"Drama",4.0000,3,12.0000
4347,"Comedy_Drama",3.8333,3,11.5000
4349,"Comedy_War",3.7500,8,30.0000
4350,"Comedy_Documentary",4.2500,2,8.5000
4351,"Action_Crime_Thriller",3.2500,16,52.0000
4353,"Action_War",3.0000,1,3.0000
4354,"Crime_Thriller",2.5000,1,2.5000
4355,"Action_Drama",2.0000,2,4.0000
4356,"Comedy_Musical_Romance",3.8000,5,19.0000
4357,"Comedy_Drama_Romance",4.5000,1,4.5000
4359,"Comedy",3.3750,8,27.0000
4361,"Comedy_Romance",3.4219,32,109.5000
4366,"Adventure_Animation_Children_Fantasy",3.3421,19,63.5000
4367,"Action_Adventure",2.9000,40,116.0000
4368,"Comedy",2.3636,11,26.0000
4369,"Action_Crime_Thriller",3.0667,45,138.0000
4370,"Adventure_Drama_Sci-Fi",3.3393,56,187.0000
4371,"Crime_Drama",0.5000,1,0.5000
4372,"Drama_Romance",3.4000,5,17.0000
4373,"Comedy",3.1667,3,9.5000
4374,"Comedy_Romance",4.5000,1,4.5000
4378,"Crime_Drama",3.7143,14,52.0000
4380,"Drama_Romance",3.8571,7,27.0000
4381,"Comedy",3.3750,4,13.5000
4383,"Crime_Drama_Mystery_Thriller",3.5000,5,17.5000
4384,"Drama",3.0000,1,3.0000
4386,"Children_Comedy",2.8182,11,31.0000
4387,"Action",3.7778,9,34.0000
4388,"Comedy",2.6538,26,69.0000
4389,"Drama",3.6250,4,14.5000
4390,"Crime_Drama_Thriller",3.5000,2,7.0000
4392,"Comedy_Drama_Fantasy_Romance",3.0000,3,9.0000
4393,"Drama",4.5000,1,4.5000
4394,"Comedy_Musical",1.5000,1,1.5000
4395,"Comedy_Crime",4.0000,1,4.0000
4396,"Action_Comedy",2.7500,10,27.5000
4397,"Action_Comedy",2.5000,2,5.0000
4399,"Comedy_Drama",3.7500,2,7.5000
4402,"Comedy",5.0000,1,5.0000
4403,"Horror",3.0000,2,6.0000
4404,"Drama_Fantasy_Horror",4.0000,1,4.0000
4406,"Crime_Drama_Western",4.4000,5,22.0000
4407,"Drama_Thriller_War",4.5000,1,4.5000
4408,"Drama",3.5000,1,3.5000
4409,"Comedy_Drama_Mystery_Thriller",3.3333,3,10.0000
4410,"Comedy_Crime_Drama",4.0000,1,4.0000
4412,"Comedy_Horror_Sci-Fi",0.7500,2,1.5000
4419,"Drama_Romance",4.2500,4,17.0000
4420,"Drama",3.0000,1,3.0000
4422,"Drama",4.0000,2,8.0000
4424,"Drama",3.6667,3,11.0000
4426,"Film-Noir",4.0000,2,8.0000
4427,"Drama",3.6667,9,33.0000
4428,"Comedy_Drama_Romance_Western",3.2500,2,6.5000
4429,"Drama",4.5000,2,9.0000
4432,"Drama_Film-Noir",4.1250,4,16.5000
4433,"Drama",4.2500,2,8.5000
4434,"Action_Comedy_Sci-Fi_Thriller",4.0000,1,4.0000
4436,"Mystery_Thriller",3.0000,1,3.0000
4437,"Horror",3.9375,8,31.5000
4438,"Action_Drama_Romance_Thriller",3.8333,3,11.5000
4439,"Drama",3.6250,4,14.5000
4440,"Action_Thriller",3.7500,2,7.5000
4441,"Action",4.1667,3,12.5000
4442,"Action_Comedy_Drama",2.6667,3,8.0000
4443,"Action_Sci-Fi_Thriller",2.7500,2,5.5000
4444,"Action_Crime",4.1667,3,12.5000
4445,"Adventure_Documentary_IMAX",4.0000,1,4.0000
4446,"Adventure_Animation_Fantasy_Sci-Fi",3.3548,31,104.0000
4447,"Comedy_Romance",3.1562,64,202.0000
4448,"Action_Drama",3.5500,20,71.0000
4449,"Drama",2.0000,1,2.0000
4450,"Crime_Drama_Thriller",3.6429,7,25.5000
4451,"Comedy_Drama_Romance",3.5000,1,3.5000
4452,"Comedy",2.6667,6,16.0000
4453,"Documentary_IMAX",3.5000,1,3.5000
4454,"Animation_Drama_Sci-Fi_IMAX",5.0000,1,5.0000
4458,"Documentary_IMAX",4.0000,1,4.0000
4459,"Documentary_IMAX",4.0000,1,4.0000
4462,"Comedy_Fantasy",1.5000,2,3.0000
4463,"Drama_War",2.0000,1,2.0000
4464,"Comedy_Drama_Romance",3.6000,5,18.0000
4465,"Drama",3.7000,5,18.5000
4466,"Action_Crime_Drama",2.5000,2,5.0000
4467,"Adventure_Comedy_Fantasy",3.7692,13,49.0000
4470,"Drama",3.0000,2,6.0000
4471,"Comedy_Romance",1.5000,3,4.5000
4473,"Drama_War",3.0000,1,3.0000
4474,"Comedy_Drama_Musical",2.9000,5,14.5000
4475,"Drama_War",4.0000,1,4.0000
4476,"Comedy",2.3333,3,7.0000
4477,"Adventure_Children_Comedy",1.9375,8,15.5000
4478,"Comedy_Drama",3.5000,2,7.0000
4480,"Horror_Sci-Fi",2.8333,3,8.5000
4482,"Drama",3.1667,3,9.5000
4483,"Comedy",1.5000,3,4.5000
4484,"Drama",3.7500,2,7.5000
4487,"Drama_Romance",2.9545,11,32.5000
4488,"Action_Crime_Drama",3.3333,3,10.0000
4489,"Comedy_Romance",3.4583,24,83.0000
4490,"Comedy",2.0000,1,2.0000
4492,"Comedy_Sci-Fi",3.0000,3,9.0000
4495,"Comedy_Romance",5.0000,1,5.0000
4496,"Film-Noir_Mystery_Thriller",3.5000,1,3.5000
4497,"Action_Comedy_Horror_Sci-Fi",3.0000,1,3.0000
4498,"Action_Crime_Thriller",3.0000,6,18.0000
4499,"Comedy",4.1250,16,66.0000
4500,"Comedy_Drama",4.0000,1,4.0000
4502,"Children_Comedy",1.6250,4,6.5000
4504,"Comedy",1.5000,1,1.5000
4505,"Drama_Romance",3.0000,1,3.0000
4506,"Crime_Mystery_Thriller",3.1667,3,9.5000
4508,"Drama",3.5000,8,28.0000
4509,"Comedy",2.9000,5,14.5000
4511,"Comedy",2.0000,1,2.0000
4516,"Comedy",3.0000,2,6.0000
4517,"Horror_Mystery_Thriller",1.7500,2,3.5000
4518,"Comedy_Horror",3.7500,4,15.0000
4519,"Adventure_Animation_Children_Fantasy",3.3333,9,30.0000
4520,"Comedy",2.3333,3,7.0000
4521,"Drama",3.0000,1,3.0000
4522,"Mystery_Romance_Thriller",1.0000,1,1.0000
4523,"Comedy_Drama_Fantasy",3.5000,2,7.0000
4524,"Comedy",3.0000,1,3.0000
4526,"Comedy_Romance_Sci-Fi",3.1000,5,15.5000
4527,"Comedy_Romance",2.5000,2,5.0000
4529,"Comedy_Drama",3.8750,4,15.5000
4531,"Action",2.6667,3,8.0000
4533,"Comedy_Horror_Sci-Fi",3.7500,4,15.0000
4534,"Adventure_Drama_Western",2.5000,2,5.0000
4535,"Drama_Romance_Western",3.3750,4,13.5000
4537,"Drama",4.3333,3,13.0000
4541,"Horror",3.5000,2,7.0000
4544,"Comedy_Sci-Fi",2.9000,5,14.5000
4545,"Comedy_Sci-Fi",3.2750,20,65.5000
4546,"Drama_Thriller",3.9167,6,23.5000
4552,"Action_Horror_Sci-Fi_Thriller",3.5000,3,10.5000
4553,"Action_Sci-Fi_Thriller",3.7222,9,33.5000
4557,"Drama",3.0000,1,3.0000
4558,"Comedy",2.4643,14,34.5000
4562,"Comedy_Mystery",4.0000,1,4.0000
4563,"Comedy",1.8333,3,5.5000
4564,"Drama_Fantasy_Romance",2.8333,6,17.0000
4565,"Action_Adventure",2.5000,2,5.0000
4568,"Action",2.5000,1,2.5000
4571,"Adventure_Comedy_Sci-Fi",3.7000,45,166.5000
4572,"Action_Crime_Drama",3.0000,3,9.0000
4573,"Comedy_Drama",2.0000,1,2.0000
4574,"Action_Thriller",3.2500,2,6.5000
4577,"Drama_War",3.8333,3,11.5000
4578,"Comedy_Romance",2.5000,2,5.0000
4580,"Action_Sci-Fi",0.5000,2,1.0000
4581,"Drama",4.0000,1,4.0000
4583,"Action_Comedy",4.0000,1,4.0000
4584,"Comedy_Drama_Romance",2.0000,1,2.0000
4585,"Comedy",3.3750,4,13.5000
4587,"Comedy_Musical_Sci-Fi",2.2500,8,18.0000
4589,"Drama_Musical_Mystery",2.0000,2,4.0000
4591,"Adventure_Comedy_Fantasy",3.0000,5,15.0000
4593,"Comedy",2.2500,2,4.5000
4594,"Action_War",3.0000,1,3.0000
4595,"Drama",3.5000,1,3.5000
4597,"Action_Drama_Mystery",2.0000,1,2.0000
4599,"Drama",2.5000,2,5.0000
4600,"Comedy_Drama",3.2500,2,6.5000
4602,"Comedy_Crime_Romance",3.0000,3,9.0000
4603,"Comedy_Romance",2.5000,1,2.5000
4605,"Comedy_Fantasy",3.6250,4,14.5000
4608,"Crime_Drama",2.2500,2,4.5000
4610,"Comedy_Crime_Mystery_Thriller",2.0000,1,2.0000
4611,"Crime_Drama",4.0000,1,4.0000
4612,"Drama",4.5000,1,4.5000
4613,"Action_Comedy_Crime",2.0000,1,2.0000
4614,"Action",2.5000,1,2.5000
4615,"Drama",4.0000,1,4.0000
4616,"Drama",3.5000,6,21.0000
4617,"Comedy",3.5000,2,7.0000
4619,"Comedy",2.2500,2,4.5000
4621,"Comedy_Romance",2.3889,18,43.0000
4622,"Comedy",2.5000,2,5.0000
4623,"Comedy",3.5750,20,71.5000
4624,"Animation_Comedy_Musical",3.0000,3,9.0000
4625,"Drama_Sci-Fi_Thriller",2.0000,3,6.0000
4626,"Drama_Romance_Sci-Fi",3.5000,2,7.0000
4628,"Comedy_Drama",3.1250,4,12.5000
4629,"Action_Crime_Thriller",1.7500,2,3.5000
4630,"Action",1.0000,1,1.0000
4632,"Action_Thriller",3.0000,2,6.0000
4634,"Adventure_Comedy",4.0000,2,8.0000
4635,"Action_Comedy_Drama",1.0000,1,1.0000
4636,"Action",2.3333,3,7.0000
4638,"Action_Adventure_Sci-Fi_Thriller",2.8472,36,102.5000
4639,"Comedy_Romance",2.5833,18,46.5000
4640,"Action_Crime_Thriller",3.7500,4,15.0000
4641,"Comedy_Drama",3.5000,34,119.0000
4642,"Comedy_Drama_Musical",4.1818,11,46.0000
4643,"Action_Adventure_Drama_Sci-Fi",2.7449,49,134.5000
4644,"Comedy_Drama_Romance",3.6667,3,11.0000
4645,"Crime_Horror_Thriller",4.5000,1,4.5000
4646,"Comedy_Drama",1.5000,1,1.5000
4649,"Comedy",3.6429,7,25.5000
4653,"Adventure_Comedy",3.0000,1,3.0000
4654,"Action_Drama",2.7857,7,19.5000
4658,"Drama_Horror_Mystery_Thriller",3.5000,1,3.5000
4660,"Comedy",4.0000,1,4.0000
4661,"Crime_Drama_Thriller",3.0000,2,6.0000
4662,"Comedy_Crime",3.1667,3,9.5000
4663,"Comedy",2.8333,3,8.5000
4666,"Comedy",3.0000,1,3.0000
4670,"Horror_Thriller",2.5000,1,2.5000
4671,"Drama",3.5000,1,3.5000
4672,"Comedy_Romance",2.7500,2,5.5000
4673,"Action_Comedy_Crime_Thriller",1.6667,3,5.0000
4675,"Action_Comedy",1.0000,1,1.0000
4676,"Comedy",1.9167,6,11.5000
4677,"Comedy_Crime",3.0385,13,39.5000
4678,"Comedy",3.4444,9,31.0000
4679,"Comedy",2.8846,13,37.5000
4681,"Comedy_Drama",3.6429,7,25.5000
4683,"Adventure_Children_Comedy_Drama",3.2500,2,6.5000
4686,"Adventure_Comedy",1.6250,4,6.5000
4687,"Comedy",3.5000,1,3.5000
4688,"Adventure_Drama",3.3333,3,10.0000
4689,"Mystery_Thriller",3.5000,1,3.5000
4690,"Crime_Musical",3.2500,2,6.5000
4695,"Crime_Drama",4.0000,1,4.0000
4697,"Comedy_Horror",2.6250,4,10.5000
4699,"Drama_Romance_Thriller",2.7500,2,5.5000
4700,"Children_Comedy_Romance",3.0370,27,82.0000
4701,"Action_Comedy",3.3710,31,104.5000
4703,"Drama",3.3750,4,13.5000
4704,"Adventure_Comedy",3.0000,1,3.0000
4705,"Comedy",3.0000,1,3.0000
4708,"Drama_Musical",4.5000,2,9.0000
4709,"Comedy_Musical_Western",2.8333,3,8.5000
4710,"Drama_Western",3.5000,1,3.5000
4711,"Documentary",4.0000,2,8.0000
4713,"Drama_Sci-Fi",3.5714,7,25.0000
4714,"Comedy",2.0000,2,4.0000
4715,"Horror",3.0000,1,3.0000
4717,"Action_Comedy",4.0000,1,4.0000
4718,"Comedy",3.0667,45,138.0000
4719,"Action_Animation_Comedy_Crime_Drama_Romance_Thriller",2.6250,8,21.0000
4720,"Drama_Horror_Mystery_Thriller",3.6273,55,199.5000
4721,"Action_Comedy_Western",2.1250,4,8.5000
4722,"Comedy",3.0000,1,3.0000
4723,"Drama",1.8333,3,5.5000
4725,"Horror_Thriller",3.6250,4,14.5000
4727,"Drama_Romance_War",3.1250,4,12.5000
4728,"Comedy",3.0556,18,55.0000
4732,"Comedy",1.8889,9,17.0000
4733,"Comedy",2.5000,3,7.5000
4734,"Adventure_Comedy",3.1618,34,107.5000
4735,"Horror_Sci-Fi_Thriller",2.6000,5,13.0000
4736,"Comedy_Drama_Romance",2.6667,3,8.0000
4738,"Romance_Sci-Fi",4.0000,4,16.0000
4740,"Comedy_Romance",3.5000,1,3.5000
4741,"Comedy_Drama_Romance",3.7143,7,26.0000
4743,"Comedy_Romance",3.2500,2,6.5000
4744,"Horror",2.5000,7,17.5000
4745,"Drama",3.6250,4,14.5000
4748,"Action_Children_Comedy",2.0833,6,12.5000
4749,"Action_Children_Comedy",1.2500,2,2.5000
4750,"Action_Children",0.5000,1,0.5000
4754,"Drama_Horror_Mystery_Thriller",3.9167,6,23.5000
4756,"Action_Adventure_Drama_Romance",1.5000,2,3.0000
4757,"Comedy_Drama_Musical",2.5000,3,7.5000
4759,"Comedy_Drama",4.0000,1,4.0000
4765,"Drama",4.3333,3,13.0000
4766,"Crime_Drama_Romance",4.0000,1,4.0000
4769,"Documentary",3.0000,1,3.0000
4770,"Thriller",2.7500,2,5.5000
4771,"Drama",2.6667,3,8.0000
4772,"Drama",3.5000,1,3.5000
4773,"Comedy",3.0000,4,12.0000
4774,"Comedy_Crime",2.1667,6,13.0000
4775,"Drama_Musical_Romance",0.5000,1,0.5000
4776,"Crime_Drama_Thriller",3.7941,51,193.5000
4777,"Comedy_Musical_Sci-Fi",2.5000,1,2.5000
4780,"Drama",2.0000,2,4.0000
4782,"Comedy_Romance",2.5000,2,5.0000
4783,"Documentary",3.5000,1,3.5000
4784,"Drama",3.0000,2,6.0000
4785,"Drama_Western",4.0000,1,4.0000
4786,"Horror_Thriller",1.0000,1,1.0000
4787,"Drama",3.3500,10,33.5000
4788,"Drama_Romance",5.0000,1,5.0000
4789,"Comedy_Fantasy_Horror_Musical_Thriller",4.3333,3,13.0000
4792,"Horror",3.1250,4,12.5000
4794,"Crime_Horror_Mystery",3.0000,3,9.0000
4795,"Adventure_Comedy_Romance_War",3.6667,3,11.0000
4796,"Comedy_Romance",3.2500,2,6.5000
4798,"Comedy_Romance",3.5000,1,3.5000
4799,"Action_Adventure_Comedy_Crime",3.2500,10,32.5000
4800,"Action_Adventure_Drama_Romance_Thriller",2.5000,1,2.5000
4801,"Drama",4.0000,2,8.0000
4802,"Action_Comedy_Romance_War",3.0000,4,12.0000
4803,"Drama_Thriller",3.6250,4,14.5000
4804,"Comedy_Drama",3.5000,1,3.5000
4808,"Mystery_Thriller",2.3750,4,9.5000
4809,"Drama",4.1667,3,12.5000
4810,"Drama",2.0000,1,2.0000
4811,"Drama_Musical",3.0000,2,6.0000
4812,"Adventure_Sci-Fi",2.1667,6,13.0000
4813,"Sci-Fi",5.0000,1,5.0000
4814,"Thriller",2.5000,5,12.5000
4815,"Drama",2.9167,6,17.5000
4816,"Comedy",3.5093,54,189.5000
4818,"Action_Adventure_Comedy_Drama",2.0000,1,2.0000
4821,"Adventure_Thriller",3.1000,5,15.5000
4822,"Children_Comedy",2.5000,3,7.5000
4823,"Comedy_Romance",3.1400,25,78.5000
4825,"Comedy_Drama",3.0000,1,3.0000
4826,"Action_Adventure_Drama_War",4.2500,2,8.5000
4827,"Horror",3.0000,1,3.0000
4828,"Comedy_Romance",3.5000,1,3.5000
4830,"Crime_Drama",4.0000,1,4.0000
4831,"Comedy_Musical",3.0000,1,3.0000
4833,"Horror_Mystery_Thriller",3.3333,3,10.0000
4835,"Drama",3.5000,3,10.5000
4836,"Drama_Romance",3.7500,2,7.5000
4840,"Drama_Romance",4.0000,1,4.0000
4844,"Comedy_Crime_Romance",2.6667,6,16.0000
4845,"Comedy_Crime",1.3333,3,4.0000
4846,"Action_Comedy",3.5000,5,17.5000
4847,"Drama",3.0000,2,6.0000
4848,"Crime_Drama_Film-Noir_Mystery_Thriller",3.8431,51,196.0000
4849,"Comedy_Drama",3.3333,3,10.0000
4850,"Action_Animation_Sci-Fi",3.3750,4,13.5000
4852,"Horror",1.6667,3,5.0000
4855,"Action_Crime_Thriller",3.7750,20,75.5000
4857,"Drama_Musical",3.8125,8,30.5000
4860,"Comedy",2.0000,1,2.0000
4862,"Drama",1.6667,3,5.0000
4863,"Comedy_Crime",3.2500,2,6.5000
4864,"Documentary_IMAX",2.5000,1,2.5000
4865,"Crime_Horror_Mystery_Thriller",3.6500,20,73.0000
4866,"Action",2.8125,8,22.5000
4867,"Comedy_Drama",3.1000,5,15.5000
4871,"Drama",3.5000,1,3.5000
4873,"Animation_Drama_Fantasy",3.6842,19,70.0000
4874,"Drama_Fantasy_Mystery_Sci-Fi",3.4848,33,115.0000
4876,"Horror_Thriller",2.4583,12,29.5000
4877,"Comedy_Romance",3.5000,1,3.5000
4878,"Drama_Mystery_Sci-Fi_Thriller",3.9817,109,434.0000
4879,"Action_Comedy_Crime_Drama",3.0000,1,3.0000
4880,"Drama",3.8889,9,35.0000
4881,"Crime_Drama",3.7353,17,63.5000
4883,"Drama",4.0000,1,4.0000
4885,"Thriller",2.0000,1,2.0000
4886,"Adventure_Animation_Children_Comedy_Fantasy",3.8712,132,511.0000
4887,"Action_Sci-Fi_Thriller",2.7500,14,38.5000
4888,"Drama",3.8750,4,15.5000
4889,"Crime_Drama",3.4286,7,24.0000
4890,"Comedy_Fantasy_Romance",3.0323,31,94.0000
4893,"Horror_Thriller",2.5000,2,5.0000
4896,"Adventure_Children_Fantasy",3.7617,107,402.5000
4898,"Comedy_Crime_Mystery_Thriller",2.6250,4,10.5000
4899,"Adventure_Comedy_Fantasy",2.1875,8,17.5000
4900,"Comedy",3.0000,5,15.0000
4901,"Action_Crime_Drama_Thriller",3.4815,27,94.0000
4902,"Drama_Fantasy_Horror_Thriller_War",3.3500,10,33.5000
4903,"Drama",3.0000,10,30.0000
4909,"Comedy_Sci-Fi",2.0000,2,4.0000
4911,"Adventure_Comedy_Fantasy",3.5000,2,7.0000
4912,"Drama_Musical_Romance",3.7500,4,15.0000
4914,"Crime_Drama_Romance",3.9375,8,31.5000
4915,"Action_Adventure_Fantasy",2.8000,5,14.0000
4916,"Drama_War",3.3333,3,10.0000
4917,"Drama",4.0000,1,4.0000
4919,"Crime_Drama_Romance_Thriller",3.5000,2,7.0000
4920,"Drama_Romance",3.6667,3,11.0000
4921,"Drama_Romance",4.0000,5,20.0000
4925,"Comedy",3.0000,1,3.0000
4926,"Comedy_Drama_Musical",2.0000,1,2.0000
4927,"Fantasy_Mystery_Thriller",3.0000,1,3.0000
4928,"Drama",3.1250,4,12.5000
4929,"Comedy",2.3750,4,9.5000
4932,"Mystery_Thriller",1.0000,1,1.0000
4936,"Drama_Musical",3.3333,9,30.0000
4939,"Action_Sci-Fi",3.0000,1,3.0000
4941,"Action_Adventure_Sci-Fi",3.1875,8,25.5000
4942,"Sci-Fi",4.5000,1,4.5000
4945,"Crime",4.0000,1,4.0000
4946,"Action_Crime_Thriller",4.0000,1,4.0000
4947,"Action",3.5000,2,7.0000
4951,"Adventure_Drama_Thriller",3.4286,7,24.0000
4952,"Comedy_Sci-Fi",2.0000,1,2.0000
4953,"Adventure_Sci-Fi",2.5000,1,2.5000
4954,"Comedy_Crime",3.6364,11,40.0000
4956,"Action_Adventure_Comedy_Drama_Romance_Thriller",4.5000,3,13.5000
4957,"Crime_Thriller",3.5000,2,7.0000
4958,"Action_Drama_War",3.2500,20,65.0000
4959,"Drama",3.2500,2,6.5000
4961,"Documentary",2.5000,1,2.5000
4962,"Adventure_Western",2.0000,1,2.0000
4963,"Crime_Thriller",3.8445,119,457.5000
4964,"Adventure_Drama_Romance",3.5000,1,3.5000
4965,"Action_Drama_Thriller",3.5000,2,7.0000
4966,"Sci-Fi_Thriller",3.0000,1,3.0000
4967,"Drama_War",4.1923,13,54.5000
4969,"Crime_Mystery",3.6250,4,14.5000
4970,"Drama",4.0000,1,4.0000
4971,"Comedy_Drama",3.1000,5,15.5000
4973,"Comedy_Romance",4.1833,120,502.0000
4974,"Comedy",2.5714,14,36.0000
4975,"Mystery_Romance_Sci-Fi_Thriller",3.4205,44,150.5000
4976,"Drama",3.8750,4,15.5000
4977,"Drama",3.5000,2,7.0000
4978,"Drama_Mystery_Thriller",3.8333,6,23.0000
4979,"Comedy_Drama",3.6838,68,250.5000
4980,"Adventure_Comedy_Fantasy_Sci-Fi",3.0750,20,61.5000
4981,"Comedy",4.0000,1,4.0000
4985,"Action_Adventure_Fantasy",1.5000,2,3.0000
4987,"Action_Adventure_Sci-Fi",2.0000,2,4.0000
4988,"Adventure",2.0000,1,2.0000
4989,"Comedy",2.9444,9,26.5000
4990,"Adventure_Animation_Children_Comedy",3.2000,5,16.0000
4991,"Comedy_Drama_Romance",3.3333,3,10.0000
4992,"Comedy_Romance",3.2059,17,54.5000
4993,"Adventure_Fantasy",4.1061,198,813.0000
4994,"Comedy_Drama_Romance",3.5000,10,35.0000
4995,"Drama_Romance",4.0000,123,492.0000
4998,"Adventure_Crime_Drama_Thriller",3.5000,1,3.5000
5004,"Comedy",3.5000,7,24.5000
5007,"Adventure_Comedy_Thriller",2.5000,1,2.5000
5008,"Drama_Mystery_Thriller",4.3889,9,39.5000
5009,"Drama",3.0000,8,24.0000
5010,"Action_Drama_War",3.8100,50,190.5000
5011,"Drama_Romance",3.7500,2,7.5000
5012,"Drama_Musical_Romance",4.0000,1,4.0000
5013,"Comedy_Drama_Mystery",3.7037,27,100.0000
5014,"Drama",3.7647,17,64.0000
5015,"Drama_Romance",3.3056,18,59.5000
5016,"Drama",3.0000,6,18.0000
5021,"Comedy_Crime_Mystery_Thriller",2.8333,3,8.5000
5023,"Drama",4.0000,2,8.0000
5025,"Comedy",2.6333,15,39.5000
5026,"Action_Mystery_Thriller",3.8214,14,53.5000
5027,"Action_Comedy_Crime_Drama_Thriller",3.0000,5,15.0000
5028,"Drama",2.0000,1,2.0000
5033,"Drama_Thriller",2.5000,2,5.0000
5034,"Drama_Romance",3.6667,3,11.0000
5039,"Action_Adventure_Fantasy",4.0833,6,24.5000
5040,"Action_Adventure_Fantasy",3.1250,8,25.0000
5041,"Animation_Fantasy",1.5000,1,1.5000
5046,"Action_Drama_Sci-Fi_Thriller",3.0000,3,9.0000
5047,"Action_Comedy",3.2222,9,29.0000
5048,"Adventure_Children_Comedy",2.3333,6,14.0000
5049,"Action_Comedy_Crime_Drama",3.5909,11,39.5000
5051,"Comedy_Drama_Romance",3.0000,2,6.0000
5053,"Comedy",1.5000,1,1.5000
5054,"Sci-Fi_Thriller",3.5000,1,3.5000
5055,"Action_Drama",2.8125,8,22.5000
5059,"Documentary",5.0000,1,5.0000
5060,"Comedy_Drama_War",3.9348,46,181.0000
5062,"Mystery_Sci-Fi_Thriller",3.5000,2,7.0000
5063,"Western",3.0000,1,3.0000
5064,"Action_Adventure_Drama_Thriller",3.8281,32,122.5000
5065,"Drama_Fantasy_Horror_Mystery_Thriller",3.0769,13,40.0000
5066,"Drama_Romance",3.5000,14,49.0000
5068,"Drama",4.0000,1,4.0000
5069,"Action_Adventure_Animation_Drama_Fantasy",3.2500,2,6.5000
5071,"Drama_Romance",4.0000,1,4.0000
5072,"Animation_Sci-Fi",3.9615,13,51.5000
5073,"Drama",3.8333,3,11.5000
5074,"Comedy_Drama",3.1667,3,9.5000
5075,"Comedy",3.6667,3,11.0000
5076,"Adventure_Children_Comedy_Drama",2.5000,3,7.5000
5077,"Comedy_Romance",3.0000,1,3.0000
5080,"Comedy",2.6000,5,13.0000
5081,"Drama_Romance",2.8000,5,14.0000
5083,"Comedy_Drama",3.5000,2,7.0000
5088,"Comedy_Crime_Drama",5.0000,1,5.0000
5092,"Children_Comedy",3.0000,5,15.0000
5093,"Action_Thriller",2.7778,9,25.0000
5094,"Action_Sci-Fi",1.7857,7,12.5000
5095,"Comedy_Crime",4.5000,1,4.5000
5096,"Comedy",1.2500,2,2.5000
5099,"Children_Drama",2.5000,4,10.0000
5102,"Comedy_Fantasy",2.5000,4,10.0000
5103,"Children_Comedy_Drama",3.4375,24,82.5000
5105,"Drama_Horror_Thriller",0.5000,1,0.5000
5106,"Comedy_Musical_Romance",2.0714,7,14.5000
5107,"Drama_War",3.1000,5,15.5000
5108,"Crime_Drama_Thriller",2.9091,11,32.0000
5109,"Adventure_Animation_Children",4.0000,1,4.0000
5110,"Comedy_Crime_Mystery",3.6042,24,86.5000
5111,"Drama_Thriller",1.5000,1,1.5000
5112,"Drama",3.0000,1,3.0000
5113,"Comedy_Crime",2.7500,2,5.5000
5114,"Drama",4.0000,1,4.0000
5116,"Comedy",3.5000,1,3.5000
5120,"Comedy_Mystery_Thriller",4.1667,3,12.5000
5121,"Comedy_Drama",4.0000,1,4.0000
5127,"Drama_Fantasy_Mystery_Romance_Thriller",3.5000,3,10.5000
5128,"Fantasy_Horror",2.3636,11,26.0000
5131,"Comedy_Drama",3.2500,2,6.5000
5134,"Comedy_Drama",3.0000,2,6.0000
5135,"Comedy_Romance",3.8333,12,46.0000
5136,"Drama_Horror",2.5000,2,5.0000
5137,"Documentary",3.8333,3,11.5000
5139,"Comedy",3.2778,9,29.5000
5146,"Animation_Fantasy_Horror_Sci-Fi",3.1111,9,28.0000
5147,"Drama",3.7500,4,15.0000
5151,"Comedy_Romance",3.0000,18,54.0000
5152,"Action_Drama_War",3.3333,18,60.0000
5155,"Action",4.5000,1,4.5000
5156,"Action",2.5000,1,2.5000
5159,"Animation_Children_Comedy_Musical",3.1429,7,22.0000
5165,"Horror",4.0000,2,8.0000
5168,"Comedy_Musical_Romance",3.0000,1,3.0000
5170,"Action_Comedy_Crime",2.5000,2,5.0000
5171,"Action_Adventure_Sci-Fi",2.8636,22,63.0000
5177,"Drama_Romance",3.5000,2,7.0000
5178,"Crime_Drama",4.0000,1,4.0000
5181,"Action_Sci-Fi_Thriller",4.5000,2,9.0000
5187,"Comedy",4.0000,3,12.0000
5189,"Horror_Sci-Fi",1.5000,1,1.5000
5197,"Drama",2.0000,1,2.0000
5198,"Drama_Thriller",3.5000,1,3.5000
5202,"Drama",3.2500,2,6.5000
5205,"Comedy_Horror",2.7500,2,5.5000
5209,"Action_Adventure_Thriller",2.0000,1,2.0000
5212,"Action",3.0000,1,3.0000
5213,"Comedy",1.5000,1,1.5000
5214,"Comedy_Fantasy",2.5000,4,10.0000
5218,"Adventure_Animation_Children_Comedy",3.6882,85,313.5000
5219,"Action_Horror_Sci-Fi_Thriller",3.0833,30,92.5000
5220,"Action_Comedy",2.4000,10,24.0000
5221,"Drama",3.0000,1,3.0000
5222,"Comedy_Romance",3.3750,4,13.5000
5224,"Documentary",4.2500,2,8.5000
5225,"Drama_Romance",3.9524,21,83.0000
5226,"Drama_Romance",2.2500,2,4.5000
5231,"Comedy",3.5000,1,3.5000
5237,"Drama",4.0000,1,4.0000
5238,"Drama",3.5000,2,7.0000
5239,"Documentary_Drama",4.0000,1,4.0000
5240,"Action_Drama",4.0000,1,4.0000
5241,"Comedy_Romance",5.0000,1,5.0000
5244,"Action_Adventure",5.0000,1,5.0000
5246,"Action_Comedy",2.1250,4,8.5000
5247,"Action_Comedy",2.7222,9,24.5000
5248,"Action_Comedy",1.3750,4,5.5000
5250,"Comedy",4.0000,3,12.0000
5254,"Action_Horror_Thriller",3.2059,34,109.0000
5255,"Comedy",2.3750,4,9.5000
5256,"Drama",2.7500,2,5.5000
5258,"Drama",2.0000,2,4.0000
5264,"Action_Adventure_Sci-Fi_Thriller",2.2500,4,9.0000
5265,"Comedy_Crime_Drama",3.3182,11,36.5000
5266,"Thriller",3.0000,37,111.0000
5267,"Drama",3.2917,12,39.5000
5268,"Drama_Fantasy_Romance",2.5000,1,2.5000
5269,"Drama",4.0000,1,4.0000
5272,"Drama",3.0000,1,3.0000
5275,"Drama",1.5000,1,1.5000
5278,"Comedy_Romance",1.0000,1,1.0000
5279,"Comedy_Romance",4.2500,2,8.5000
5282,"Thriller",3.2500,2,6.5000
5283,"Comedy",2.9091,22,64.0000
5284,"Comedy_Romance",2.5000,1,2.5000
5285,"Comedy_Crime",4.0000,1,4.0000
5288,"Documentary_War",4.5000,2,9.0000
5291,"Crime_Drama_Mystery",3.9444,18,71.0000
5292,"Comedy",3.8571,7,27.0000
5293,"Drama_Thriller",3.3333,9,30.0000
5294,"Crime_Drama_Thriller",3.8636,11,42.5000
5296,"Comedy_Romance",2.9000,10,29.0000
5297,"Drama_Thriller",2.5000,2,5.0000
5298,"Comedy_Romance",3.5000,5,17.5000
5299,"Comedy_Romance",3.2667,60,196.0000
5300,"Action_Adventure_Drama_Thriller_Western",4.0000,1,4.0000
5303,"Comedy_Romance",3.4286,7,24.0000
5304,"Drama_War",4.0000,2,8.0000
5307,"Comedy",3.0000,1,3.0000
5308,"Comedy",2.8158,19,53.5000
5309,"Comedy_Romance",2.5625,8,20.5000
5311,"Children_Horror_Mystery_Thriller",3.0000,1,3.0000
5312,"Crime_Thriller",2.8571,7,20.0000
5313,"Action_Adventure_Fantasy_Thriller",2.2955,22,50.5000
5316,"Romance_Thriller",3.1429,7,22.0000
5319,"Crime_Thriller",3.5000,6,21.0000
5321,"Comedy",2.0000,1,2.0000
5322,"Drama",4.0000,1,4.0000
5323,"Horror_Sci-Fi_Thriller",1.1875,8,9.5000
5324,"Comedy_Romance",2.7500,2,5.5000
5325,"Documentary",3.7857,7,26.5000
5328,"Drama_Romance",5.0000,1,5.0000
5329,"Crime_Drama_Thriller",3.3500,10,33.5000
5333,"Crime_Drama",3.3333,3,10.0000
5334,"Comedy_Crime",1.5000,2,3.0000
5337,"Comedy",2.8333,3,8.5000
5338,"Drama",2.0000,1,2.0000
5339,"Comedy_Drama",3.9167,6,23.5000
5341,"Drama",3.7500,2,7.5000
5345,"Drama",3.0000,1,3.0000
5346,"Drama_Romance",1.7500,2,3.5000
5347,"Drama",2.5000,2,5.0000
5348,"Comedy_Drama",4.0000,1,4.0000
5349,"Action_Adventure_Sci-Fi_Thriller",3.5410,122,432.0000
5353,"Comedy_Drama",3.0000,1,3.0000
5356,"Horror_Sci-Fi",0.5000,1,0.5000
5357,"Adventure",3.5000,2,7.0000
5358,"Adventure",3.0000,1,3.0000
5361,"Adventure",1.7500,2,3.5000
5363,"Comedy",2.5000,9,22.5000
5364,"Drama_Thriller",3.5000,7,24.5000
5365,"Drama_Romance",4.0000,1,4.0000
5372,"Musical_Western",3.5000,1,3.5000
5373,"Drama_Romance_War",4.0000,1,4.0000
5375,"Comedy_Musical_Western",3.0000,1,3.0000
5377,"Comedy_Drama_Romance",3.7159,44,163.5000
5378,"Action_Adventure_Sci-Fi_IMAX",3.1576,92,290.5000
5379,"Drama",4.2500,6,25.5000
5380,"Comedy_Drama_Romance",3.8500,10,38.5000
5382,"Comedy",3.0000,3,9.0000
5384,"Crime_Drama",3.0000,1,3.0000
5385,"Documentary",4.5000,1,4.5000
5387,"Drama_Thriller",4.0000,3,12.0000
5388,"Action_Crime_Drama_Mystery_Thriller",3.3030,33,109.0000
5389,"Adventure_Animation_Children_Western",3.5000,2,7.0000
5390,"Drama",3.0000,1,3.0000
5391,"Drama",4.0000,3,12.0000
5397,"Comedy_Sci-Fi",2.5000,2,5.0000
5398,"Drama",4.0000,2,8.0000
5400,"Drama_Thriller",2.9706,17,50.5000
5401,"Comedy",1.8333,9,16.5000
5404,"Drama_Romance",4.5000,3,13.5000
5409,"Action",3.7500,2,7.5000
5410,"Drama_Sci-Fi",2.3750,4,9.5000
5414,"Action_Comedy_Crime",2.8750,4,11.5000
5415,"Comedy_Drama",3.1250,4,12.5000
5416,"Comedy_Drama_Thriller",5.0000,1,5.0000
5417,"Drama_Fantasy",3.8333,3,11.5000
5418,"Action_Mystery_Thriller",3.8170,112,427.5000
5419,"Adventure_Children_Comedy_Fantasy_Mystery",2.8529,17,48.5000
5420,"Action_Drama_War",2.8750,8,23.0000
5421,"Drama",3.5000,6,21.0000
5422,"Comedy",4.0000,1,4.0000
5423,"Action_Crime_Thriller",3.0000,3,9.0000
5424,"Crime_Drama_Romance_Thriller",3.0000,1,3.0000
5425,"Drama_War",4.2500,2,8.5000
5427,"Comedy",2.5000,3,7.5000
5428,"Comedy",1.1250,4,4.5000
5433,"Adventure_Drama_Horror_Mystery_Thriller",2.6667,3,8.0000
5434,"Drama_Film-Noir_Thriller",3.8000,5,19.0000
5435,"Western",3.0000,1,3.0000
5437,"Comedy_Sci-Fi_Thriller",3.0000,3,9.0000
5438,"Action_Comedy",2.7500,4,11.0000
5440,"Western",3.0000,1,3.0000
5442,"Action_Comedy_Crime",2.0000,1,2.0000
5443,"Comedy",1.5000,2,3.0000
5444,"Adventure_Animation_Children_Sci-Fi",3.8103,29,110.5000
5445,"Action_Crime_Mystery_Sci-Fi_Thriller",3.6375,120,436.5000
5446,"Adventure_Drama",3.6429,7,25.5000
5447,"Drama",3.5000,2,7.0000
5448,"Adventure_Animation_Children_Comedy",2.0000,1,2.0000
5449,"Comedy_Romance",2.9091,22,64.0000
5450,"Comedy_Drama_Romance",3.2000,5,16.0000
5451,"Comedy_Drama_Romance",3.0000,5,15.0000
5452,"Children_Comedy_Romance",1.5833,6,9.5000
5454,"Comedy_Romance",2.2500,2,4.5000
5455,"Comedy_Drama",1.5000,1,1.5000
5456,"Comedy_Western",2.0000,1,2.0000
5458,"Children_Comedy_Fantasy",2.5000,1,2.5000
5459,"Action_Comedy_Sci-Fi",2.9590,61,180.5000
5460,"Action_Animation_Children_Comedy",3.6667,3,11.0000
5461,"Comedy_Drama",2.5000,1,2.5000
5462,"Adventure_Comedy",2.5000,2,5.0000
5463,"Action_Adventure_Fantasy",2.7222,18,49.0000
5464,"Crime_Drama",3.5204,49,172.5000
5465,"Crime_Drama_Thriller",3.0000,1,3.0000
5466,"Comedy_Drama_Romance",4.0000,4,16.0000
5468,"Sci-Fi",5.0000,1,5.0000
5470,"Comedy_Romance",4.3333,3,13.0000
5471,"Drama_Romance",1.8333,3,5.5000
5472,"Children_Drama_Musical",3.5000,2,7.0000
5475,"Drama_Mystery_Thriller",3.8333,3,11.5000
5476,"Horror_Thriller",2.0000,3,6.0000
5477,"Drama_Romance",3.8750,4,15.5000
5478,"Action_Comedy_Horror_Sci-Fi",2.7500,8,22.0000
5479,"Action_Adventure_Drama_Thriller",3.5000,6,21.0000
5480,"Children_Comedy",2.6000,5,13.0000
5481,"Comedy",2.8462,65,185.0000
5483,"Documentary",3.8333,3,11.5000
5485,"Comedy_Drama_Romance",3.3333,3,10.0000
5486,"Comedy",2.5000,2,5.0000
5489,"Horror",4.0000,1,4.0000
5490,"Action_Comedy",5.0000,1,5.0000
5493,"Action_Adventure_Comedy",4.0000,1,4.0000
5497,"Adventure_Comedy_Sci-Fi",3.5000,3,10.5000
5498,"Drama",4.5000,1,4.5000
5499,"Adventure_Drama_Romance",3.2500,2,6.5000
5500,"Comedy",4.2000,10,42.0000
5501,"Comedy_Mystery",1.8571,7,13.0000
5502,"Horror_Sci-Fi_Thriller",3.1667,63,199.5000
5503,"Comedy_Drama_Romance",4.0000,1,4.0000
5504,"Adventure_Children",2.2143,7,15.5000
5505,"Comedy_Drama",3.2083,12,38.5000
5506,"Crime_Drama_Mystery_Thriller",3.3333,3,10.0000
5507,"Action_Crime_Thriller",2.7708,24,66.5000
5508,"Comedy_Drama_Musical",3.5714,7,25.0000
5512,"Comedy",3.2500,2,6.5000
5513,"Comedy_Documentary",5.0000,1,5.0000
5515,"Drama",3.5000,1,3.5000
5521,"Action_Crime_Drama",3.2500,2,6.5000
5522,"Action_Drama_Sci-Fi",3.5000,4,14.0000
5523,"Action_Adventure_Comedy_Sci-Fi",2.3333,3,7.0000
5524,"Adventure_Drama_Romance",2.6875,8,21.5000
5525,"Comedy_Drama_Romance",3.5000,1,3.5000
5527,"Drama_Romance",3.5000,4,14.0000
5528,"Drama_Thriller",3.4737,19,66.0000
5529,"Comedy_Romance",3.2500,2,6.5000
5530,"Comedy_Drama_Fantasy_Sci-Fi",2.1429,7,15.0000
5531,"Drama",2.7500,2,5.5000
5532,"Comedy_Romance",4.0000,1,4.0000
5537,"Drama_Musical",5.0000,1,5.0000
5538,"Animation_Children_Fantasy",1.5000,2,3.0000
5539,"Animation_Children",1.5000,2,3.0000
5540,"Action_Adventure_Fantasy_Romance",3.6111,9,32.5000
5541,"Action_Comedy_Romance_War",3.1333,15,47.0000
5543,"Action_Horror_Sci-Fi",2.2500,2,4.5000
5544,"Sci-Fi_Thriller",3.7500,4,15.0000
5548,"Comedy",3.0000,5,15.0000
5550,"Musical_Western",3.5000,1,3.5000
5553,"Comedy_Crime_Romance_Thriller",3.0000,8,24.0000
5556,"Crime_Horror_Thriller",1.5000,3,4.5000
5560,"Comedy_Musical",1.0000,1,1.0000
5562,"Drama_Thriller",2.5000,1,2.5000
5563,"Crime_Drama",2.8333,3,8.5000
5564,"Thriller",2.0000,2,4.0000
5568,"Comedy",2.8571,7,20.0000
5569,"Crime_Horror_Thriller",3.2500,2,6.5000
5570,"Drama_Horror_Thriller",3.9000,5,19.5000
5572,"Comedy",2.7143,7,19.0000
5573,"Comedy_Crime",2.2857,7,16.0000
5574,"Action_Crime",3.5192,26,91.5000
5575,"Crime_Drama",2.0000,1,2.0000
5577,"Comedy_Drama",3.6667,12,44.0000
5580,"Action",3.5000,1,3.5000
5581,"Comedy",2.0000,1,2.0000
5582,"Adventure_Comedy",2.6875,8,21.5000
5584,"Comedy",3.5000,1,3.5000
5585,"Comedy",2.0833,6,12.5000
5588,"Horror",3.5000,2,7.0000
5589,"Comedy_Drama",3.0000,3,9.0000
5590,"Crime",2.5000,1,2.5000
5591,"Children_Comedy",1.0000,1,1.0000
5596,"Adventure_Comedy_Sci-Fi",1.5000,1,1.5000
5597,"Comedy_Sci-Fi",1.7500,2,3.5000
5601,"Children_Drama",4.0000,1,4.0000
5602,"Comedy_Crime",3.5000,1,3.5000
5603,"Comedy_Crime",4.5000,2,9.0000
5604,"Comedy_Sci-Fi",3.5000,1,3.5000
5607,"Comedy_Drama",5.0000,1,5.0000
5608,"Drama_Thriller",3.8636,11,42.5000
5609,"Action_Thriller",2.5000,2,5.0000
5610,"Comedy_Drama",2.0000,3,6.0000
5611,"Adventure_War",2.7500,2,5.5000
5612,"Action_Thriller",2.0000,1,2.0000
5613,"Comedy_Crime_Musical_Mystery",3.8333,3,11.5000
5614,"Drama_Romance",4.5000,1,4.5000
5615,"Drama",3.5000,1,3.5000
5617,"Comedy_Drama_Romance",3.9000,25,97.5000
5618,"Adventure_Animation_Fantasy",4.1552,87,361.5000
5619,"Documentary",4.0000,2,8.0000
5620,"Comedy_Romance",3.0536,28,85.5000
5621,"Action_Comedy",2.5000,10,25.0000
5625,"Drama_Romance",3.5000,3,10.5000
5628,"Action_Comedy_Crime_Drama_Thriller",3.5000,5,17.5000
5629,"Animation_Children_Musical",2.0000,1,2.0000
5630,"Crime_Mystery_Thriller",3.4355,31,106.5000
5632,"Drama",3.6000,5,18.0000
5633,"Drama",3.7500,2,7.5000
5635,"Drama",3.0000,1,3.0000
5636,"Comedy_Crime",2.5000,2,5.0000
5637,"Drama",4.5000,2,9.0000
5638,"Action_Adventure_Fantasy_Sci-Fi",2.0000,1,2.0000
5640,"Horror_Sci-Fi",3.0000,1,3.0000
5643,"Documentary",3.5000,3,10.5000
5644,"Drama",3.5000,3,10.5000
5646,"Drama_Romance",4.0000,4,16.0000
5649,"Horror",3.0000,1,3.0000
5650,"Comedy",3.5455,11,39.0000
5651,"Animation_Comedy_War",3.0000,1,3.0000
5657,"Action_Adventure_Comedy_Crime_Drama",4.5000,1,4.5000
5663,"Horror",3.5000,1,3.5000
5664,"Romance",1.5000,1,1.5000
5665,"Action_Comedy_Crime",2.5000,5,12.5000
5666,"Comedy_Drama_Romance_Thriller",3.6000,5,18.0000
5667,"Drama_Fantasy",3.2500,2,6.5000
5668,"Drama",2.5000,4,10.0000
5669,"Documentary",3.7759,58,219.0000
5670,"Comedy_Documentary",3.0000,2,6.0000
5672,"Adventure_Animation_Children_Fantasy",0.5000,2,1.0000
5673,"Comedy_Drama_Romance",3.6212,33,119.5000
5675,"Comedy_Romance",1.0000,1,1.0000
5678,"Action_Comedy_Crime_Thriller",2.6667,3,8.0000
5679,"Horror_Mystery_Thriller",3.2021,47,150.5000
5680,"Crime_Drama",3.1667,3,9.5000
5682,"Drama",3.2500,2,6.5000
5684,"Documentary",3.0000,1,3.0000
5685,"Comedy_Drama",4.2500,2,8.5000
5688,"Drama",2.7500,2,5.5000
5689,"Crime_Drama",2.0000,1,2.0000
5690,"Animation_Drama_War",4.1562,16,66.5000
5693,"Comedy_Drama_Romance",3.3182,11,36.5000
5694,"Comedy_Drama_Musical",2.2500,2,4.5000
5696,"Drama",2.3333,3,7.0000
5699,"Western",4.0000,1,4.0000
5700,"Action_Adventure_Fantasy_Sci-Fi",0.5000,1,0.5000
5704,"Horror_Sci-Fi",2.0000,1,2.0000
5706,"Comedy_Drama",2.0000,1,2.0000
5707,"Drama_Romance",3.2500,2,6.5000
5710,"Comedy",2.7500,2,5.5000
5712,"Mystery_Thriller",3.6250,4,14.5000
5720,"Action_Adventure_Comedy",2.5000,1,2.5000
5723,"Comedy_Romance",5.0000,1,5.0000
5733,"Thriller",4.0000,1,4.0000
5735,"Documentary_Horror",1.7500,2,3.5000
5736,"Documentary_Horror",1.5000,1,1.5000
5741,"Drama_Romance",4.0000,1,4.0000
5742,"Comedy_Drama",4.0000,1,4.0000
5745,"Comedy_Drama",5.0000,1,5.0000
5746,"Action_Horror_Mystery_Sci-Fi",5.0000,1,5.0000
5747,"Drama_War",4.2857,7,30.0000
5749,"Drama_Horror",3.0000,1,3.0000
5752,"Comedy_Romance",3.0000,1,3.0000
5755,"Horror_Mystery",2.0000,2,4.0000
5764,"Drama_Horror_Sci-Fi_Thriller",4.5000,1,4.5000
5767,"Comedy_Crime",3.5000,1,3.5000
5768,"Comedy_Fantasy",3.0000,1,3.0000
5771,"Drama_Horror_Thriller",0.5000,1,0.5000
5772,"Drama",4.7500,2,9.5000
5773,"Comedy",3.0000,1,3.0000
5779,"Horror_Sci-Fi",2.0000,1,2.0000
5780,"Comedy",3.0000,1,3.0000
5782,"Action_Drama_Thriller",3.8684,19,73.5000
5784,"Horror",2.5000,9,22.5000
5785,"Action_Comedy_Documentary",3.5000,17,59.5000
5786,"Action_Drama",4.5000,1,4.5000
5787,"Mystery_Thriller",2.5000,1,2.5000
5788,"Drama",3.6667,3,11.0000
5791,"Drama_Romance",3.7812,16,60.5000
5792,"Comedy_Drama",3.6667,6,22.0000
5796,"Action_Adventure_Comedy",2.5000,5,12.5000
5797,"Fantasy_Horror",2.0000,1,2.0000
5799,"Drama_Romance_War",3.5000,1,3.5000
5801,"Comedy_War",2.5000,1,2.5000
5802,"Comedy",4.0000,1,4.0000
5803,"Action_Adventure_Comedy_Crime",2.5000,7,17.5000
5804,"Children_Comedy_Fantasy_Romance",2.3000,5,11.5000
5809,"Crime_Thriller",3.3750,4,13.5000
5810,"Drama",3.2927,41,135.0000
5812,"Drama_Romance",3.8636,11,42.5000
5816,"Adventure_Fantasy",3.5980,102,367.0000
5817,"Drama_War",4.5000,1,4.5000
5818,"Drama_Romance",4.5000,1,4.5000
5820,"Documentary_Musical",3.5000,3,10.5000
5826,"Romance_Western",3.5000,1,3.5000
5828,"Drama_Thriller",2.5000,1,2.5000
5829,"Comedy_Drama_Romance",4.0000,1,4.0000
5833,"Action_Horror",4.6667,3,14.0000
5836,"Comedy_Romance",2.0000,1,2.0000
5838,"Drama",4.0000,1,4.0000
5839,"Adventure_Drama",4.0000,1,4.0000
5840,"Comedy_Drama",4.0000,1,4.0000
5841,"Adventure_Romance",1.6667,3,5.0000
5843,"Action_Drama",2.5000,4,10.0000
5847,"Drama",3.5000,1,3.5000
5849,"Comedy",4.5000,1,4.5000
5853,"Horror_Sci-Fi_Thriller",3.2500,2,6.5000
5856,"Comedy_Drama_Romance",4.0000,1,4.0000
5863,"Comedy",1.0000,1,1.0000
5867,"Crime_Drama_Thriller",4.5000,2,9.0000
5872,"Action_Adventure_Thriller",2.9259,27,79.0000
5873,"Drama",3.8750,4,15.5000
5874,"Comedy",2.4000,5,12.0000
5875,"Drama",2.5000,1,2.5000
5876,"Drama_Thriller_War",3.9000,5,19.5000
5878,"Drama_Romance",4.0357,14,56.5000
5879,"Animation_Comedy_Musical",1.5000,4,6.0000
5880,"Action_Adventure_Crime_Thriller",1.7500,2,3.5000
5881,"Drama_Romance_Sci-Fi",3.0750,20,61.5000
5882,"Adventure_Animation_Children_Sci-Fi_IMAX",3.5625,8,28.5000
5883,"Horror_Thriller",1.5000,1,1.5000
5884,"Comedy_Horror",1.0000,1,1.0000
5888,"Crime_Drama",5.0000,1,5.0000
5889,"Drama_Romance",5.0000,1,5.0000
5890,"Comedy_Drama",4.5000,2,9.0000
5891,"Horror_Thriller",2.6250,4,10.5000
5893,"Crime_Drama_Thriller",3.2500,2,6.5000
5896,"Comedy",4.0000,1,4.0000
5899,"Action_Drama_War",4.0000,4,16.0000
5900,"Comedy_Crime",2.5625,8,20.5000
5901,"Crime_Drama",4.5000,1,4.5000
5902,"Comedy_Drama_Romance",3.9457,46,181.5000
5903,"Action_Sci-Fi_Thriller",3.8750,44,170.5000
5909,"Comedy_Drama_Horror",3.3000,5,16.5000
5912,"Comedy_Crime",4.5000,1,4.5000
5915,"Action_Drama_War",4.7500,2,9.5000
5919,"Sci-Fi",4.5000,2,9.0000
5922,"Action",2.5000,1,2.5000
5925,"Horror",2.0000,2,4.0000
5927,"Comedy_Drama_Musical_Romance",3.0000,1,3.0000
5929,"Comedy_Romance",3.0000,1,3.0000
5932,"Documentary",3.7500,2,7.5000
5938,"Comedy_Crime_Mystery_Thriller",4.5000,2,9.0000
5941,"Comedy_Drama_Musical_Romance",2.9167,6,17.5000
5942,"Comedy",2.8333,6,17.0000
5943,"Comedy_Romance",2.6053,19,49.5000
5944,"Action_Drama_Sci-Fi_Thriller",3.1053,19,59.0000
5945,"Comedy_Drama",3.1731,26,82.5000
5947,"Drama",3.0000,1,3.0000
5949,"Thriller",4.2500,2,8.5000
5951,"Drama",3.2500,4,13.0000
5952,"Adventure_Fantasy",4.0213,188,756.0000
5953,"Drama_War",4.0000,1,4.0000
5954,"Crime_Drama",3.8409,22,84.5000
5955,"Drama",3.5556,9,32.0000
5956,"Crime_Drama",3.5182,55,193.5000
5957,"Comedy_Romance",3.2632,19,62.0000
5959,"Crime_Drama_Thriller",3.2778,9,29.5000
5961,"Action_Thriller",1.5000,1,1.5000
5962,"Drama_Thriller",1.0000,1,1.0000
5963,"Drama",3.5000,2,7.0000
5965,"Action_War",4.1667,3,12.5000
5968,"Comedy_Crime_Drama",4.0000,1,4.0000
5969,"Comedy_Drama_Romance",2.5000,1,2.5000
5970,"Comedy_Drama_Romance",3.2000,10,32.0000
5971,"Animation_Children_Drama_Fantasy",3.9595,37,146.5000
5974,"Adventure_Fantasy",3.0000,1,3.0000
5975,"Drama_Romance_War",3.5000,1,3.5000
5979,"Horror_Sci-Fi",3.0000,1,3.0000
5980,"Horror_Mystery_Thriller",3.5000,2,7.0000
5984,"Drama_Romance",3.5000,2,7.0000
5986,"Drama",4.0000,1,4.0000
5988,"Drama",2.6250,4,10.5000
5989,"Crime_Drama",3.9217,115,451.0000
5990,"Children_Comedy_Fantasy",3.5000,1,3.5000
5991,"Comedy_Crime_Drama_Musical",3.7245,49,182.5000
5992,"Drama_Romance",3.7000,15,55.5000
5993,"Drama",2.9000,5,14.5000
5994,"Drama_Romance",4.0000,2,8.0000
5995,"Drama_War",4.1087,46,189.0000
5999,"Action_Adventure_Animation_Fantasy_Sci-Fi",2.2500,2,4.5000
6001,"Comedy_Drama",4.0714,7,28.5000
6002,"Drama",3.3333,3,10.0000
6003,"Comedy_Crime_Drama_Thriller",3.6000,15,54.0000
6005,"Comedy_Documentary",3.0000,3,9.0000
6006,"Comedy_Romance",2.7500,8,22.0000
6009,"Crime_Drama_Thriller",3.0000,1,3.0000
6012,"Comedy_Romance",2.5000,4,10.0000
6013,"Action_Comedy",1.7500,2,3.5000
6014,"Action_Comedy",2.5000,5,12.5000
6016,"Action_Adventure_Crime_Drama_Thriller",4.1467,75,311.0000
6020,"Comedy_Drama",3.5000,1,3.5000
6021,"Crime_Drama_Mystery_Thriller",5.0000,1,5.0000
6022,"Drama",2.5000,3,7.5000
6023,"Comedy_Crime_Drama_Romance",3.5000,2,7.0000
6025,"Comedy",2.9000,5,14.5000
6027,"Drama_Romance",4.1667,3,12.5000
6030,"Comedy_Musical",2.0000,1,2.0000
6031,"Drama_Romance",3.5000,2,7.0000
6033,"Comedy",3.0000,1,3.0000
6035,"Crime_Drama_Romance",3.2500,2,6.5000
6036,"Comedy_Romance",3.0000,1,3.0000
6039,"Comedy_Romance",2.3750,4,9.5000
6040,"Horror_Thriller",2.1250,4,8.5000
6041,"Drama",3.8333,3,11.5000
6042,"Documentary",3.0000,1,3.0000
6044,"Horror_Thriller",2.0000,1,2.0000
6049,"Drama",4.0000,1,4.0000
6051,"Action_Crime_Drama",4.1667,3,12.5000
6055,"Drama",2.2500,2,4.5000
6057,"Action_Crime_Drama",2.0000,1,2.0000
6058,"Horror_Thriller",3.0500,10,30.5000
6059,"Action_Thriller",3.3529,17,57.0000
6060,"Comedy_Romance",3.0000,2,6.0000
6062,"Documentary",3.0833,6,18.5000
6063,"Drama_Horror",3.3333,3,10.0000
6064,"Drama_Film-Noir",4.0000,1,4.0000
6067,"Comedy_Crime",4.0000,1,4.0000
6070,"Drama",4.0000,1,4.0000
6078,"Action_Sci-Fi_Thriller",2.7500,2,5.5000
6086,"Crime_Drama_Thriller",5.0000,1,5.0000
6090,"Comedy",3.5000,1,3.5000
6093,"Animation_Children_Fantasy",3.3750,4,13.5000
6095,"Action",3.5000,1,3.5000
6100,"Comedy_Romance",4.0000,3,12.0000
6101,"Drama_Mystery_Thriller",4.0000,1,4.0000
6104,"Comedy",4.1667,9,37.5000
6107,"Drama_War",4.0000,1,4.0000
6111,"Adventure_Romance",3.5000,1,3.5000
6116,"Adventure_Comedy_Musical",2.5000,2,5.0000
6119,"Comedy",4.0000,1,4.0000
6122,"Comedy_Documentary",4.0000,2,8.0000
6123,"Documentary",4.0000,1,4.0000
6124,"Comedy",2.7500,2,5.5000
6125,"Comedy_Documentary_Musical",3.5000,1,3.5000
6140,"Horror_Mystery_Thriller",2.2500,2,4.5000
6141,"Comedy",3.0000,1,3.0000
6143,"Comedy_Crime",3.0000,2,6.0000
6145,"Horror_Thriller",2.0000,1,2.0000
6148,"Drama_Horror_Thriller",2.8333,3,8.5000
6153,"Comedy_Sci-Fi",1.5000,2,3.0000
6155,"Comedy_Romance",3.2759,29,95.0000
6156,"Action_Adventure_Comedy",3.2105,19,61.0000
6157,"Action_Crime",2.5000,32,80.0000
6158,"Animation_Children",3.0000,1,3.0000
6159,"Drama_Romance",4.2500,2,8.5000
6162,"Adventure_Drama",3.1667,3,9.5000
6163,"Romance_Thriller",4.5000,1,4.5000
6166,"Comedy",1.8125,8,14.5000
6169,"Adventure_Children",2.5000,2,5.0000
6170,"Adventure_Children_Drama",3.5000,3,10.5000
6178,"Drama_Romance",4.0000,1,4.0000
6181,"Drama_War",4.0000,1,4.0000
6182,"Comedy",3.0000,1,3.0000
6183,"Comedy_Musical_Romance",3.8333,3,11.5000
6184,"Drama_Sci-Fi",4.2500,4,17.0000
6185,"Action_Crime_Drama_Thriller",3.0000,3,9.0000
6186,"Action_Drama_War",3.0000,1,3.0000
6187,"Crime_Drama_Thriller",3.8125,8,30.5000
6188,"Comedy",3.5128,39,137.0000
6192,"Romance",5.0000,1,5.0000
6193,"Comedy_Drama_Thriller",3.8333,3,11.5000
6195,"Documentary",4.0000,2,8.0000
6196,"Action_Crime_Drama_Thriller",3.5000,3,10.5000
6197,"Drama_Mystery",3.3333,3,10.0000
6201,"Drama_Romance",5.0000,1,5.0000
6202,"Comedy_Drama_Romance",3.5000,1,3.5000
6203,"Comedy",1.5000,2,3.0000
6204,"Comedy",2.5000,1,2.5000
6210,"Action_Comedy",3.0000,1,3.0000
6212,"Comedy",1.9167,6,11.5000
6213,"Action_Drama_Thriller",2.6429,7,18.5000
6214,"Crime_Drama_Mystery_Thriller",3.8889,9,35.0000
6215,"Drama",3.0000,3,9.0000
6216,"Drama",3.7500,2,7.5000
6217,"Drama",3.0000,2,6.0000
6218,"Comedy_Drama_Romance",3.3000,40,132.0000
6219,"Action_Drama_Thriller",3.0000,3,9.0000
6220,"Drama_Horror_Thriller",2.5000,4,10.0000
6222,"Drama",3.0000,1,3.0000
6223,"Comedy_Crime_Drama",3.2500,2,6.5000
6225,"Drama",3.0000,1,3.0000
6228,"Comedy_Romance_Thriller",4.0000,1,4.0000
6232,"Adventure_Children_Drama",4.0000,1,4.0000
6234,"Drama_Mystery",3.5000,1,3.5000
6235,"Drama_War",4.3333,3,13.0000
6237,"Drama",4.0000,1,4.0000
6238,"Comedy_Drama_Romance",2.8333,9,25.5000
6239,"Adventure_Children_Sci-Fi",2.7500,2,5.5000
6241,"Comedy_Drama_Romance",4.0000,1,4.0000
6242,"Horror_Mystery_Thriller",3.4545,11,38.0000
6244,"Drama",3.5000,2,7.0000
6245,"Comedy_Drama_Musical_Romance",3.5000,1,3.5000
6246,"Drama",4.0000,1,4.0000
6249,"Comedy",2.3750,4,9.5000
6250,"Drama_Horror_Sci-Fi_Thriller",2.6429,7,18.5000
6251,"Animation_Children",2.0000,1,2.0000
6252,"Comedy_Romance",2.3750,4,9.5000
6254,"Comedy_Romance",4.7500,2,9.5000
6263,"Drama_Thriller_War",3.7500,2,7.5000
6264,"Action_Drama_Sci-Fi_Thriller",2.3750,8,19.0000
6265,"Comedy",2.2500,2,4.5000
6266,"Comedy_Drama_Romance",3.0625,8,24.5000
6267,"Drama_Thriller",2.0000,1,2.0000
6268,"Comedy_Drama_Romance",3.7500,2,7.5000
6269,"Documentary",4.2500,2,8.5000
6270,"Drama_Fantasy",4.3333,3,13.0000
6271,"Comedy_Drama_Romance",2.0000,1,2.0000
6273,"Drama_Film-Noir_Mystery_Romance",3.5000,1,3.5000
6279,"Crime_Drama",4.0000,1,4.0000
6280,"Action_Crime_Drama_Thriller",2.2500,2,4.5000
6281,"Drama_Thriller",3.1406,32,100.5000
6283,"Action_Animation_Sci-Fi_Thriller",3.9000,20,78.0000
6285,"Drama",4.0000,1,4.0000
6286,"Comedy_Crime_Drama",3.8750,4,15.5000
6287,"Comedy",3.0588,34,104.0000
6288,"Crime_Drama",3.8750,4,15.5000
6289,"Documentary_IMAX",3.5000,1,3.5000
6290,"Horror",2.7143,7,19.0000
6291,"Crime_Drama",3.5000,3,10.5000
6294,"Action_Adventure_Sci-Fi",2.4091,11,26.5000
6295,"Comedy",2.0000,1,2.0000
6296,"Comedy_Musical",3.7500,14,52.5000
6297,"Adventure_Children_Comedy_Mystery",3.4250,20,68.5000
6298,"Comedy_Crime",2.6667,3,8.0000
6299,"Documentary",3.5000,9,31.5000
6300,"Action_Comedy_Crime",4.5000,3,13.5000
6301,"Drama_Thriller",4.0000,5,20.0000
6302,"Sci-Fi",1.0000,1,1.0000
6303,"Mystery_Sci-Fi",3.6250,8,29.0000
6305,"Drama_Sci-Fi",3.6000,10,36.0000
6306,"Documentary",4.1667,3,12.5000
6308,"Comedy_Crime_Romance",2.6250,4,10.5000
6310,"Comedy_Drama",2.5000,1,2.5000
6313,"Comedy",2.5000,2,5.0000
6314,"Comedy_Crime",2.0000,2,4.0000
6315,"Comedy",1.8333,3,5.5000
6316,"Adventure_Children_Comedy_Fantasy_Musical",2.0000,1,2.0000
6319,"Comedy_Drama",2.1667,3,6.5000
6320,"Comedy",1.5000,2,3.0000
6322,"Crime_Thriller",2.8333,6,17.0000
6323,"Crime_Horror_Mystery_Thriller",3.6818,22,81.0000
6324,"Comedy_Drama",2.5000,2,5.0000
6327,"Documentary",3.5000,3,10.5000
6329,"Drama",3.0000,1,3.0000
6330,"Crime_Drama",3.0000,2,6.0000
6331,"Documentary",3.9231,13,51.0000
6332,"Children_Comedy_Romance",3.0000,4,12.0000
6333,"Action_Adventure_Sci-Fi_Thriller",3.7237,76,283.0000
6334,"Drama",3.5000,3,10.5000
6335,"Crime_Drama_Thriller",3.8333,3,11.5000
6336,"Drama",3.0000,1,3.0000
6337,"Crime_Drama_Thriller",3.5000,4,14.0000
6338,"Children_Comedy",2.3333,6,14.0000
6339,"Comedy_Drama",3.8750,4,15.5000
6341,"Drama",3.2500,4,13.0000
6342,"Comedy_Drama_Romance",2.0000,1,2.0000
6344,"Comedy_Drama_Romance",3.5000,1,3.5000
6345,"Comedy_Drama_Musical",4.6667,3,14.0000
6347,"Drama_Musical",1.0000,1,1.0000
6348,"Musical",1.6667,3,5.0000
6349,"Drama_Musical",2.0000,3,6.0000
6350,"Action_Adventure_Animation_Children_Fantasy_Sci-Fi",4.0625,24,97.5000
6357,"Comedy_Musical_Romance",3.0000,2,6.0000
6358,"Comedy_Musical_Romance",3.5000,1,3.5000
6365,"Action_Adventure_Sci-Fi_Thriller_IMAX",3.3542,96,322.0000
6367,"Comedy_Romance",2.9000,10,29.0000
6368,"Documentary",4.0000,4,16.0000
6370,"Comedy_Drama_Romance",4.0000,5,20.0000
6371,"Animation_Children",0.5000,1,0.5000
6373,"Comedy_Drama_Fantasy_Romance",3.3169,71,235.5000
6374,"Comedy",2.1667,3,6.5000
6375,"Documentary",4.0000,4,16.0000
6376,"Comedy_Drama",3.5000,2,7.0000
6377,"Adventure_Animation_Children_Comedy",3.9610,141,558.5000
6378,"Action_Crime",3.6186,59,213.5000
6379,"Horror_Thriller",3.0000,2,6.0000
6380,"Documentary",3.9286,7,27.5000
6382,"Drama",3.0000,1,3.0000
6383,"Action_Crime_Thriller",2.6053,19,49.5000
6385,"Drama",3.7500,14,52.5000
6386,"Western",4.0000,1,4.0000
6387,"Action_Comedy_Crime_Thriller",3.6667,3,11.0000
6390,"Musical",3.5000,1,3.5000
6395,"Action_Drama_Horror_Sci-Fi_Thriller",3.5000,1,3.5000
6400,"Documentary",3.5000,1,3.5000
6402,"Comedy",5.0000,1,5.0000
6405,"Adventure_Children",3.2500,2,6.5000
6407,"Comedy_Romance",2.0000,1,2.0000
6408,"Comedy_Documentary",5.0000,1,5.0000
6410,"Comedy",3.7500,2,7.5000
6412,"Comedy_Western",3.7500,2,7.5000
6415,"Comedy_Drama",4.0000,1,4.0000
6417,"Action",4.0000,1,4.0000
6422,"Drama_War_Western",4.0000,1,4.0000
6424,"Comedy_Crime_Mystery_Romance",1.0000,1,1.0000
6425,"Comedy",1.5000,2,3.0000
6427,"Children_Drama",4.0000,1,4.0000
6428,"Comedy_War_Western",3.0000,2,6.0000
6429,"Western",4.0000,1,4.0000
6433,"Documentary",3.3333,3,10.0000
6434,"War",3.0000,1,3.0000
6436,"Drama",3.3333,3,10.0000
6440,"Drama_Thriller",4.0357,14,56.5000
6442,"Comedy_Romance",5.0000,2,10.0000
6448,"Action_Adventure_Drama",4.0000,2,8.0000
6449,"Drama",3.0000,1,3.0000
6452,"Drama",4.0000,1,4.0000
6453,"Documentary",3.5000,1,3.5000
6454,"Drama",3.5000,1,3.5000
6460,"Drama",4.9000,5,24.5000
6461,"Drama_Western",3.8333,6,23.0000
6464,"Children_Comedy",2.0000,2,4.0000
6465,"Drama",3.0000,1,3.0000
6466,"Drama_Romance",3.5000,3,10.5000
6476,"Mystery_Thriller",3.0000,1,3.0000
6477,"Drama",3.0000,1,3.0000
6480,"Comedy_Musical",3.0000,1,3.0000
6482,"Comedy",1.9545,11,21.5000
6483,"Musical_Romance",0.8333,3,2.5000
6484,"Action_Crime_Drama",2.9286,7,20.5000
6493,"Comedy_Drama_Romance",2.0000,1,2.0000
6502,"Action_Horror_Sci-Fi",3.9741,58,230.5000
6503,"Action_Adventure_Comedy_Crime_Thriller",2.3704,27,64.0000
6506,"Action_Thriller",3.5000,1,3.5000
6509,"Drama_Romance",4.0000,2,8.0000
6510,"Drama_Romance",3.0000,1,3.0000
6514,"Horror",0.5000,1,0.5000
6515,"Crime_Film-Noir",4.5000,1,4.5000
6516,"Drama",3.5000,1,3.5000
6517,"Drama",2.2500,2,4.5000
6523,"Comedy_Romance",2.5000,2,5.0000
6527,"Adventure_Romance",3.0000,1,3.0000
6528,"Comedy",2.0000,1,2.0000
6530,"Drama_Horror_Mystery_Thriller",4.2500,2,8.5000
6533,"Comedy",4.5000,1,4.5000
6534,"Action_Adventure_Sci-Fi",2.5606,33,84.5000
6535,"Comedy",2.4091,11,26.5000
6536,"Adventure_Animation_Children_Fantasy",3.6667,6,22.0000
6537,"Action_Adventure_Sci-Fi",3.0444,45,137.0000
6538,"Drama_Mystery_Thriller",3.6000,5,18.0000
6539,"Action_Adventure_Comedy_Fantasy",3.7785,149,563.0000
6541,"Action_Fantasy_Sci-Fi",2.6250,32,84.0000
6542,"Comedy_Drama_War",3.5000,1,3.5000
6545,"Drama_Romance",4.5000,1,4.5000
6547,"Drama_Fantasy",2.2500,2,4.5000
6548,"Action_Comedy_Crime_Thriller",2.8824,17,49.0000
6549,"Comedy_Drama_Romance",3.5000,3,10.5000
6550,"Action_Comedy_Thriller",2.9615,13,38.5000
6551,"Comedy_Romance",4.0000,1,4.0000
6552,"Crime_Drama_Thriller",3.6250,12,43.5000
6553,"Drama",4.0000,1,4.0000
6554,"Comedy_Musical",1.2500,2,2.5000
6557,"Adventure_Children_Comedy_Drama",0.5000,1,0.5000
6558,"Comedy_Drama",2.3333,3,7.0000
6559,"Children_Comedy",2.5000,4,10.0000
6560,"Action_Comedy",2.0000,1,2.0000
6561,"Comedy_War",3.0000,1,3.0000
6563,"Comedy_Drama",2.5000,1,2.5000
6564,"Action_Adventure_Comedy_Romance_Thriller",2.6471,17,45.0000
6565,"Drama",3.6944,18,66.5000
6566,"Action_Adventure_Children",2.0000,3,6.0000
6567,"Comedy_Crime_Drama_War",3.5000,3,10.5000
6568,"Comedy_Musical",3.2500,2,6.5000
6571,"Drama",4.0000,1,4.0000
6572,"Comedy_Crime",3.5000,2,7.0000
6573,"Comedy_Drama",4.0000,1,4.0000
6574,"Action_Sci-Fi_Thriller",1.0000,1,1.0000
6577,"Action_Drama",3.5000,2,7.0000
6578,"Comedy",3.5000,1,3.5000
6579,"Comedy",4.0000,2,8.0000
6581,"Comedy_Drama_Mystery",2.5000,2,5.0000
6582,"Action_Comedy_Crime_Thriller",2.3333,3,7.0000
6583,"Action_Sci-Fi",4.0000,1,4.0000
6584,"Adventure_Comedy_Crime_Thriller",3.1667,3,9.5000
6586,"Comedy",3.0938,16,49.5000
6587,"Comedy_Crime_Romance",1.5000,1,1.5000
6588,"Romance_Thriller",4.0000,1,4.0000
6591,"Drama",4.3333,6,26.0000
6592,"Drama",4.0000,1,4.0000
6593,"Children_Comedy_Fantasy",3.2083,24,77.0000
6595,"Action_Thriller",3.3214,14,46.5000
6596,"Comedy_Drama_Romance",3.5000,1,3.5000
6597,"Action_Sci-Fi",3.0000,1,3.0000
6598,"Documentary",3.5000,1,3.5000
6603,"Crime_Drama_Film-Noir",2.5000,1,2.5000
6604,"Comedy",4.0000,1,4.0000
6609,"Drama",3.5000,1,3.5000
6611,"Drama",5.0000,1,5.0000
6612,"Documentary",4.2500,2,8.5000
6614,"Comedy_Crime",2.6667,3,8.0000
6615,"Action_Horror_Thriller",2.3333,9,21.0000
6616,"Action_Comedy",2.7500,2,5.5000
6617,"Western",3.9444,9,35.5000
6618,"Action_Comedy",3.8235,17,65.0000
6619,"Comedy",2.9167,6,17.5000
6620,"Comedy_Drama",3.8333,18,69.0000
6624,"Action_Adventure_Children_Fantasy",1.9000,5,9.5000
6625,"Adventure_Children_Comedy",2.5000,4,10.0000
6628,"Comedy",2.0000,1,2.0000
6629,"Crime_Horror_Mystery_Thriller",3.5000,3,10.5000
6631,"Horror_Sci-Fi_Thriller",1.5000,2,3.0000
6636,"Comedy_Romance",3.7500,4,15.0000
6638,"Comedy_Romance",2.1667,3,6.5000
6639,"Drama_Thriller",3.4286,7,24.0000
6643,"Drama",2.6250,4,10.5000
6644,"Drama_Romance",4.0000,1,4.0000
6645,"Action_Adventure_Drama_Sci-Fi",3.7857,7,26.5000
6650,"Comedy_Drama",3.3333,3,10.0000
6654,"Adventure_Sci-Fi",3.5000,1,3.5000
6656,"Horror_Sci-Fi",4.0000,1,4.0000
6658,"Comedy_Romance",3.3750,4,13.5000
6659,"Comedy_Horror_Sci-Fi",3.4375,16,55.0000
6660,"Drama_Fantasy_Musical_Romance",3.5000,1,3.5000
6662,"Comedy_Crime",3.4545,11,38.0000
6663,"Comedy_Crime",3.4000,5,17.0000
6664,"Action_Adventure",3.5000,6,21.0000
6665,"Horror_Romance",4.5000,1,4.5000
6666,"Comedy_Drama_Fantasy",4.3000,5,21.5000
6667,"Documentary",3.5000,1,3.5000
6669,"Drama",3.4167,6,20.5000
6670,"Comedy",2.2500,2,4.5000
6671,"Drama",4.0000,1,4.0000
6678,"Drama_Sci-Fi",3.5000,1,3.5000
6679,"Documentary",4.0000,1,4.0000
6684,"Drama_Romance",4.0000,2,8.0000
6686,"Action_Comedy_Crime_Fantasy",2.7000,5,13.5000
6687,"Comedy_Romance",2.0000,4,8.0000
6688,"Comedy_Drama",3.5000,1,3.5000
6689,"Comedy_Drama_Romance",4.0000,1,4.0000
6691,"Drama_Western",2.5000,1,2.5000
6692,"Documentary",2.0000,1,2.0000
6695,"Horror_Thriller",1.8750,4,7.5000
6696,"Comedy_Drama_Musical_Romance",2.5000,1,2.5000
6699,"Drama",3.0000,1,3.0000
6702,"Comedy",2.3000,5,11.5000
6705,"Comedy_Crime_Drama_Thriller",2.5000,1,2.5000
6706,"Drama",3.5000,1,3.5000
6707,"Horror_Thriller",2.8750,8,23.0000
6708,"Comedy_Crime_Drama",3.7206,34,126.5000
6709,"Action_Adventure_Crime_Thriller",3.2143,14,45.0000
6710,"Comedy_Drama_Romance",3.6250,4,14.5000
6711,"Comedy_Drama_Romance",4.0338,74,298.5000
6713,"Animation_Drama_Romance",3.8000,5,19.0000
6715,"Horror",3.5000,1,3.5000
6718,"Comedy",2.5000,1,2.5000
6720,"Action_Comedy_Crime",2.5000,2,5.0000
6721,"Action_Adventure_Drama",3.3571,7,23.5000
6722,"Action_Romance",2.5000,1,2.5000
6723,"Action",3.0000,2,6.0000
6724,"Comedy_Crime_Drama",3.6000,5,18.0000
6731,"Horror_Sci-Fi_Thriller",3.6250,8,29.0000
6732,"Comedy_Musical_Romance",3.7500,2,7.5000
6734,"Comedy_Romance_Sci-Fi_Thriller",2.0000,2,4.0000
6744,"Comedy_Horror",2.2500,4,9.0000
6746,"Horror_Romance",2.0000,1,2.0000
6748,"Horror",3.0000,1,3.0000
6750,"Comedy_Drama_Romance",2.8333,3,8.5000
6751,"Drama_Thriller",2.5000,1,2.5000
6752,"Drama",3.5000,1,3.5000
6753,"Children_Comedy_Drama",3.5000,12,42.0000
6754,"Action_Fantasy_Horror",3.5000,33,115.5000
6755,"Comedy_Horror",3.3214,14,46.5000
6760,"Adventure_Drama",3.0000,2,6.0000
6763,"Comedy_Crime",2.4286,7,17.0000
6764,"Action_Adventure_Comedy",3.1471,17,53.5000
6765,"Comedy_Drama_Romance",3.2778,9,29.5000
6768,"Drama",4.0000,1,4.0000
6769,"Comedy",3.0000,1,3.0000
6770,"Drama_Romance",3.5000,2,7.0000
6772,"Documentary",3.0000,1,3.0000
6773,"Animation_Comedy_Fantasy",3.7045,22,81.5000
6774,"Fantasy_Horror_Sci-Fi_Thriller",3.6875,8,29.5000
6775,"Documentary",4.0000,1,4.0000
6776,"Comedy_Drama_Musical_Romance",4.1667,3,12.5000
6777,"Drama",3.6000,5,18.0000
6780,"Documentary",3.2500,2,6.5000
6782,"Comedy_Musical",4.0000,1,4.0000
6783,"Comedy_Drama",3.5000,3,10.5000
6785,"Comedy_Musical_Romance_Western",3.7500,4,15.0000
6786,"Drama",3.8750,4,15.5000
6787,"Drama_Thriller",4.0185,27,108.5000
6788,"Comedy_Drama_Romance",2.0000,1,2.0000
6789,"Drama_Mystery_Romance",4.0000,1,4.0000
6790,"Drama_Fantasy_Sci-Fi",3.5000,3,10.5000
6791,"Drama",4.4000,5,22.0000
6793,"Children_Comedy_Drama",1.7727,11,19.5000
6794,"Children_Comedy",1.5000,5,7.5000
6796,"Crime_Drama",3.7222,18,67.0000
6797,"Crime_Drama",3.0000,1,3.0000
6798,"Children_Comedy_Crime_Musical",2.7500,2,5.5000
6800,"Action_Crime",2.3333,3,7.0000
6803,"Horror_Mystery_Thriller",3.5000,1,3.5000
6804,"Comedy_Crime",2.0000,1,2.0000
6807,"Comedy",3.9500,40,158.0000
6808,"Action_Adventure_War",4.0000,4,16.0000
6809,"Thriller",3.0000,1,3.0000
6810,"Drama_Thriller",2.5000,5,12.5000
6811,"Comedy",2.5000,5,12.5000
6812,"Action_Comedy_Thriller",2.2500,2,4.5000
6814,"Action_Comedy",3.0000,1,3.0000
6816,"Comedy",4.0000,1,4.0000
6817,"Adventure_Drama",3.0000,1,3.0000
6818,"Drama_War",5.0000,2,10.0000
6820,"Drama_Horror_Thriller",4.0000,6,24.0000
6821,"Comedy",3.0000,1,3.0000
6827,"Comedy",0.8333,3,2.5000
6832,"Drama",3.6000,5,18.0000
6835,"Action_Horror_Sci-Fi",5.0000,1,5.0000
6836,"Sci-Fi",3.5000,1,3.5000
6837,"Comedy_Drama_Romance",3.0000,1,3.0000
6850,"Comedy_Drama",2.3333,3,7.0000
6851,"Drama_Romance",2.7500,2,5.5000
6852,"Crime_Drama",3.6250,4,14.5000
6853,"Comedy",1.0000,1,1.0000
6856,"Drama_Musical",4.0000,2,8.0000
6857,"Action_Adventure_Animation_Fantasy",3.7692,13,49.0000
6858,"Drama",3.7500,2,7.5000
6860,"Crime_Drama",2.0000,1,2.0000
6862,"Crime_Drama_Thriller",3.5000,2,7.0000
6863,"Comedy_Musical",3.4015,66,224.5000
6867,"Comedy_Drama",3.5833,12,43.0000
6868,"Crime_Drama_Mystery_Thriller",3.4286,7,24.0000
6869,"Crime_Documentary",3.8333,3,11.5000
6870,"Crime_Drama_Mystery",3.7115,52,193.0000
6872,"Action_Horror",1.1250,4,4.5000
6873,"Comedy_Romance",3.1750,20,63.5000
6874,"Action_Crime_Thriller",3.9618,131,519.0000
6879,"Drama_Thriller",3.4412,17,58.5000
6880,"Horror",1.8571,7,13.0000
6881,"Comedy_Drama",3.0714,7,21.5000
6882,"Action_Adventure_Sci-Fi",2.5000,1,2.5000
6883,"Drama_Romance",3.0000,1,3.0000
6884,"Crime_Drama_Thriller",3.0000,2,6.0000
6885,"Crime_Drama_Mystery_Romance_Thriller",2.8333,3,8.5000
6886,"Drama_Romance_War",3.5000,1,3.5000
6887,"Drama",4.1000,5,20.5000
6888,"Comedy_Horror",2.2750,20,45.5000
6889,"Adventure_Animation_Children",3.0000,2,6.0000
6890,"Drama",3.5556,9,32.0000
6893,"Action_Comedy_Crime",3.8500,10,38.5000
6898,"Drama",3.3333,3,10.0000
6899,"Sci-Fi",3.5000,1,3.5000
6902,"Adventure_Comedy_Drama_Fantasy_Mystery_Sci-Fi_Thriller",4.0000,2,8.0000
6909,"Thriller",3.2500,2,6.5000
6911,"Musical",3.5000,1,3.5000
6912,"Comedy_Musical_Romance",3.5000,1,3.5000
6918,"Drama",3.7500,2,7.5000
6920,"Crime_Thriller",3.5000,3,10.5000
6927,"Drama_Romance_Thriller",4.0000,1,4.0000
6932,"Crime_Drama",3.5000,7,24.5000
6934,"Action_Adventure_Sci-Fi_Thriller_IMAX",3.1519,79,249.0000
6935,"Documentary",4.0000,1,4.0000
6936,"Children_Comedy_Fantasy",3.6923,39,144.0000
6938,"Documentary",4.0000,1,4.0000
6939,"Drama_Romance",4.0000,1,4.0000
6942,"Comedy_Drama_Romance",3.7881,59,223.5000
6944,"Comedy",3.5000,13,45.5000
6945,"Documentary",4.2500,2,8.5000
6946,"Action_Animation_Children_Fantasy",2.7500,2,5.5000
6947,"Adventure_Drama_War",3.6389,36,131.0000
6948,"Documentary",4.0000,1,4.0000
6949,"Comedy_Mystery_Sci-Fi",3.5000,1,3.5000
6950,"Adventure_Thriller_Western",3.6667,3,11.0000
6951,"Children_Comedy",2.1000,5,10.5000
6952,"Horror_Thriller",3.1111,9,28.0000
6953,"Crime_Drama_Mystery_Romance_Thriller",3.3000,25,82.5000
6954,"Comedy_Crime_Drama_Mystery_Romance",4.0000,3,12.0000
6957,"Comedy_Crime",3.3654,26,87.5000
6958,"Children_Comedy_Fantasy_Horror",2.5000,10,25.0000
6959,"Action_Adventure_Sci-Fi",2.0000,3,6.0000
6961,"Drama",4.0000,1,4.0000
6962,"Documentary",3.5000,1,3.5000
6963,"Documentary",4.2500,2,8.5000
6965,"Documentary",3.5000,1,3.5000
6966,"Action_Crime_Fantasy_Sci-Fi_Thriller",3.8333,3,11.5000
6967,"Horror_Mystery",0.5000,1,0.5000
6969,"Drama_Sci-Fi",4.5000,1,4.5000
6970,"Comedy_Romance",3.7500,2,7.5000
6971,"Drama_Thriller",4.0000,1,4.0000
6973,"Drama_Romance_Thriller",2.5000,1,2.5000
6974,"Comedy_Crime",3.0000,6,18.0000
6975,"Drama_Horror_Thriller",3.2000,5,16.0000
6978,"Comedy_Drama",3.2500,4,13.0000
6979,"Drama_Sci-Fi_Thriller",3.3095,21,69.5000
6981,"Drama",3.7500,2,7.5000
6982,"Drama_War",3.5000,1,3.5000
6983,"Drama_Romance",5.0000,1,5.0000
6984,"Drama",4.0000,1,4.0000
6985,"Drama",3.9000,5,19.5000
6986,"Adventure_Drama_Romance",3.0000,1,3.0000
6987,"Crime_Fantasy_Horror",3.8571,7,27.0000
6989,"Crime_Drama_Thriller",3.5000,4,14.0000
6990,"Action_Adventure_Comedy_Crime_Drama",3.5000,1,3.5000
6992,"Comedy_Drama",2.7500,2,5.5000
6993,"Comedy_Drama_Romance",3.7692,13,49.0000
6994,"Action_Comedy",3.2500,2,6.5000
6996,"Action_Sci-Fi",1.8571,7,13.0000
6997,"Crime_Drama",3.0000,2,6.0000
6998,"Drama",2.0000,1,2.0000
6999,"Comedy_Romance",2.2500,2,4.5000
7000,"Action_Adventure_Comedy",3.0000,4,12.0000
7001,"Horror_Mystery_Sci-Fi_Thriller",3.7500,6,22.5000
7004,"Action_Comedy_Crime_Thriller",2.8824,17,49.0000
7005,"Comedy",1.5000,1,1.5000
7007,"Action_Comedy_Crime_Drama_Thriller",3.5000,8,28.0000
7008,"Drama_Romance",4.5000,5,22.5000
7009,"Drama",3.3333,3,10.0000
7010,"Drama_Romance",3.5000,3,10.5000
7012,"Comedy_Fantasy",3.0000,1,3.0000
7013,"Drama_Film-Noir_Thriller",4.0000,7,28.0000
7015,"Comedy_Romance",3.1667,3,9.5000
7016,"Action_Drama",1.5000,3,4.5000
7017,"Action_Thriller",3.5000,3,10.5000
7018,"Crime_Drama_Thriller",3.9000,5,19.5000
7019,"Comedy_Drama",2.7500,2,5.5000
7022,"Action_Drama_Horror_Thriller",3.9333,30,118.0000
7023,"Comedy_Drama_Romance",4.5000,1,4.5000
7024,"Drama",3.6667,3,11.0000
7025,"Drama_War",3.7500,2,7.5000
7026,"Comedy",2.3750,4,9.5000
7027,"Action_Western",3.2000,5,16.0000
7028,"Comedy_Crime",3.5714,7,25.0000
7030,"Drama",2.7500,2,5.5000
7031,"Action_Crime_Drama_Thriller",4.0000,1,4.0000
7032,"Drama_Romance_Thriller",4.0000,1,4.0000
7033,"Comedy_Romance",3.1250,4,12.5000
7034,"Drama_Romance",3.8125,8,30.5000
7036,"Comedy_Fantasy",3.1429,7,22.0000
7037,"Comedy_Drama",4.5000,1,4.5000
7038,"Drama_Romance",4.0000,1,4.0000
7040,"Action_Crime_Drama_Thriller",2.5000,1,2.5000
7041,"Comedy_Crime",2.5000,1,2.5000
7044,"Crime_Drama_Mystery_Romance_Thriller",3.8000,5,19.0000
7045,"Children_Fantasy",3.1667,3,9.5000
7046,"Comedy_Fantasy_Horror_Thriller",2.5000,11,27.5000
7047,"Action_Crime_Drama",2.5000,1,2.5000
7048,"Action_Adventure_Comedy_Crime",3.3750,4,13.5000
7049,"Comedy_Musical_Romance",3.0000,1,3.0000
7050,"Comedy_Musical_Romance",3.7500,2,7.5000
7051,"Comedy",3.5000,2,7.0000
7052,"Drama",3.0000,1,3.0000
7053,"Comedy_Musical_Romance",4.0000,1,4.0000
7054,"Drama",3.5000,2,7.0000
7055,"Comedy_Musical_Romance",4.0000,1,4.0000
7056,"Action_Crime_Drama",4.2500,2,8.5000
7057,"Comedy_Fantasy_Romance",3.5000,1,3.5000
7058,"Comedy",3.5000,1,3.5000
7059,"Children_Drama",3.7500,2,7.5000
7060,"Drama_Musical",4.0000,3,12.0000
7061,"Drama_Romance",4.0000,1,4.0000
7062,"Drama",4.0000,1,4.0000
7063,"Adventure_Drama",4.0000,8,32.0000
7064,"Drama_Fantasy",3.2500,6,19.5000
7065,"Drama_War",2.0000,1,2.0000
7067,"Comedy_Drama_Fantasy_Romance",3.2500,2,6.5000
7069,"Drama",3.5000,4,14.0000
7070,"Action_Adventure_Western",4.0000,1,4.0000
7071,"Drama",5.0000,1,5.0000
7072,"Action_Drama_Romance_Western",3.5000,3,10.5000
7073,"Comedy_Crime_Mystery",2.5000,1,2.5000
7074,"Comedy",3.5000,1,3.5000
7075,"Adventure_Comedy_Musical",3.5000,1,3.5000
7076,"Action_Crime_Drama_Thriller",3.8750,8,31.0000
7078,"Drama",3.8333,3,11.5000
7079,"Drama",3.5000,2,7.0000
7080,"Drama_Musical_Romance",4.0000,3,12.0000
7082,"Comedy_Romance",3.7500,2,7.5000
7083,"Drama",3.0000,1,3.0000
7084,"Comedy_Romance",3.7500,4,15.0000
7085,"Comedy_Romance",3.2500,2,6.5000
7086,"Comedy_Drama",3.5000,1,3.5000
7087,"Adventure_Drama",4.0000,2,8.0000
7088,"Drama_Romance",4.0000,1,4.0000
7089,"Comedy_Drama",4.0000,2,8.0000
7090,"Action_Adventure_Drama",3.9211,38,149.0000
7091,"Comedy",4.0000,2,8.0000
7092,"Drama_Romance",3.5000,2,7.0000
7093,"Comedy",3.7500,2,7.5000
7096,"Documentary",5.0000,1,5.0000
7099,"Adventure_Animation_Drama_Fantasy_Sci-Fi",4.0000,23,92.0000
7101,"Comedy_Romance",3.0000,6,18.0000
7102,"Comedy_Crime_Drama",2.5000,4,10.0000
7103,"Comedy",3.5000,1,3.5000
7104,"Comedy_War",2.6667,3,8.0000
7107,"Comedy_Thriller",2.7500,2,5.5000
7108,"Action_Crime_Drama",3.2500,2,6.5000
7109,"Drama_Romance",3.0000,1,3.0000
7114,"Drama_Horror_Thriller",0.5000,1,0.5000
7115,"Horror_Mystery_Thriller",2.6000,5,13.0000
7116,"Horror_Mystery_Thriller",3.1250,4,12.5000
7117,"Comedy_Horror",2.3000,5,11.5000
7118,"Animation_Drama_Sci-Fi_War",3.7500,2,7.5000
7121,"Comedy_Romance",4.7500,4,19.0000
7122,"Comedy_Drama_War",5.0000,1,5.0000
7123,"Drama_Fantasy_Mystery_Sci-Fi",3.4444,9,31.0000
7124,"Documentary",3.1667,3,9.5000
7125,"Drama",2.0000,1,2.0000
7127,"Action_Drama_Thriller",3.5000,1,3.5000
7131,"Drama",3.0000,1,3.0000
7132,"Comedy_Musical_Romance",4.1111,9,37.0000
7134,"Drama_Thriller",4.0000,1,4.0000
7137,"Comedy_Drama_Romance",3.5500,10,35.5000
7139,"Drama_Romance",3.8571,7,27.0000
7141,"Documentary",4.0000,1,4.0000
7142,"Drama_Romance",3.0000,3,9.0000
7143,"Action_Adventure_Drama_War",3.9032,62,242.0000
7147,"Drama_Fantasy_Romance",3.8333,69,264.5000
7149,"Comedy_Drama_Romance",3.6471,17,62.0000
7150,"Comedy",2.8000,10,28.0000
7151,"Drama_Romance",3.3750,12,40.5000
7153,"Action_Adventure_Drama_Fantasy",4.1189,185,762.0000
7154,"Drama_Romance",2.8000,10,28.0000
7155,"Comedy",2.6250,8,21.0000
7156,"Documentary_War",4.3077,13,56.0000
7158,"Drama",3.7778,9,34.0000
7160,"Crime_Drama",3.5294,17,60.0000
7161,"Children_Comedy",1.9375,8,15.5000
7162,"Drama_Romance_War",3.2917,12,39.5000
7163,"Action_Sci-Fi_Thriller",2.9118,17,49.5000
7164,"Action_Adventure_Children_Fantasy",3.0833,6,18.5000
7165,"Drama_Musical",3.0000,1,3.0000
7167,"Drama",3.0000,1,3.0000
7169,"Comedy_Romance",3.9375,8,31.5000
7171,"Documentary",3.5000,2,7.0000
7173,"Comedy_Romance",3.0417,24,73.0000
7175,"Action_Crime",2.2500,2,4.5000
7176,"Drama",3.5000,1,3.5000
7177,"Drama",3.5000,1,3.5000
7178,"Drama",3.0000,1,3.0000
7179,"Drama_Romance",2.5000,1,2.5000
7181,"Drama",3.5000,1,3.5000
7184,"Drama_Romance",4.5000,1,4.5000
7190,"Drama",3.5000,1,3.5000
7191,"Comedy",2.0000,1,2.0000
7192,"Action",3.0000,2,6.0000
7193,"Action_Comedy",3.0000,2,6.0000
7202,"Horror",3.0000,1,3.0000
7205,"Adventure",3.0000,1,3.0000
7206,"Comedy",3.8333,3,11.5000
7208,"Drama_Horror",3.7500,2,7.5000
7209,"Comedy",3.5000,3,10.5000
7211,"Comedy_Romance",3.5000,1,3.5000
7212,"Comedy_Romance",4.2500,2,8.5000
7215,"Adventure_Drama_Romance_Thriller_War",3.5000,4,14.0000
7216,"Crime_Drama_Film-Noir_Thriller",4.1667,3,12.5000
7217,"Crime_Drama_Film-Noir_Romance_Thriller",4.0000,1,4.0000
7218,"Drama_Western",4.5000,1,4.5000
7219,"Drama",4.0000,1,4.0000
7222,"Comedy_Drama",3.2500,2,6.5000
7223,"Drama_Film-Noir_Mystery",2.5000,1,2.5000
7225,"Documentary",3.6667,3,11.0000
7228,"Animation_Comedy_Fantasy",2.5000,4,10.0000
7234,"Drama",4.2500,6,25.5000
7235,"Action_Comedy_Crime_Drama_Horror_Thriller",3.4167,6,20.5000
7236,"Sci-Fi",4.0000,3,12.0000
7238,"Drama_War",4.0000,1,4.0000
7243,"Drama",3.5000,1,3.5000
7245,"Horror_Thriller",1.0000,1,1.0000
7247,"Adventure_Children_Comedy_Fantasy_Musical",3.4545,11,38.0000
7248,"Action_Adventure_Drama_War",3.5000,1,3.5000
7251,"Drama",4.0000,1,4.0000
7254,"Drama_Sci-Fi_Thriller",3.6304,46,167.0000
7255,"Comedy_Romance",2.8125,8,22.5000
7256,"Adventure_Documentary",4.0000,8,32.0000
7257,"Comedy_Crime_Thriller",2.0000,4,8.0000
7258,"Comedy_Crime",2.7500,4,11.0000
7259,"Drama_Musical",2.1250,4,8.5000
7260,"Comedy_Drama_Romance",3.5000,1,3.5000
7261,"Comedy",2.1667,3,6.5000
7262,"Action_Adventure_Children_Comedy_Crime",2.0000,1,2.0000
7263,"Drama",3.3500,10,33.5000
7264,"Comedy_Romance",4.0000,1,4.0000
7265,"Drama",3.7308,13,48.5000
7266,"Comedy_Horror_Sci-Fi",4.0000,1,4.0000
7282,"Comedy_Horror_Thriller",1.0000,1,1.0000
7285,"Drama",3.6111,9,32.5000
7292,"Comedy_War",2.5000,1,2.5000
7293,"Comedy_Romance",3.5532,47,167.0000
7294,"Comedy",3.2500,4,13.0000
7297,"Comedy_Drama",3.6667,3,11.0000
7299,"Drama",3.6667,3,11.0000
7301,"Drama",3.5000,3,10.5000
7302,"Action_Adventure_Fantasy",3.5000,1,3.5000
7303,"Drama_War",4.0000,4,16.0000
7304,"Animation_Comedy_Fantasy_Musical",4.0000,1,4.0000
7305,"Crime_Drama_Mystery_Thriller",2.5000,2,5.0000
7306,"Comedy_Crime_Mystery",3.0000,1,3.0000
7307,"Action_Adventure_Drama_War",3.0000,2,6.0000
7308,"Adventure_Comedy",2.5000,1,2.5000
7310,"Action",3.3333,3,10.0000
7311,"Drama_Romance",3.6667,3,11.0000
7312,"Comedy_Drama",0.5000,1,0.5000
7315,"Comedy_Drama",2.0000,2,4.0000
7316,"Comedy",2.3750,4,9.5000
7317,"Adventure_Comedy",3.1333,15,47.0000
7318,"Drama",2.6154,13,34.0000
7319,"Comedy_Horror",2.0833,6,12.5000
7320,"Romance",3.4000,5,17.0000
7321,"Thriller",2.7500,2,5.5000
7323,"Comedy_Drama",3.8043,23,87.5000
7324,"Adventure_Drama",3.3182,11,36.5000
7325,"Action_Comedy_Crime_Thriller",3.2857,21,69.0000
7326,"Crime_Drama",3.5000,1,3.5000
7327,"Drama",3.7500,6,22.5000
7328,"Drama",3.5000,1,3.5000
7333,"Crime_Drama_Thriller",4.2500,2,8.5000
7335,"Film-Noir",4.0000,1,4.0000
7336,"Drama_War",3.5000,1,3.5000
7340,"Comedy",2.7500,4,11.0000
7344,"Comedy_Crime",3.5000,1,3.5000
7345,"Action_Adventure_Children_Comedy",4.0000,1,4.0000
7346,"Comedy_Romance",3.1250,20,62.5000
7347,"Mystery_Thriller",3.3000,15,49.5000
7348,"Thriller",3.5000,3,10.5000
7349,"Drama",3.0000,1,3.0000
7352,"Comedy_Drama_Romance",4.0000,2,8.0000
7354,"Comedy_Drama_Romance",3.3333,3,10.0000
7357,"Drama_Romance",3.5000,1,3.5000
7360,"Action_Drama_Horror_Thriller",3.9062,16,62.5000
7361,"Drama_Romance_Sci-Fi",4.1603,131,545.0000
7362,"Crime_Drama_Thriller",3.2500,4,13.0000
7364,"Comedy_Crime_Drama",4.0000,1,4.0000
7366,"Comedy_Drama_Romance",2.9375,8,23.5000
7367,"Comedy_Crime",2.5714,14,36.0000
7368,"Crime_Drama_Thriller",3.5000,1,3.5000
7369,"Action_Adventure_Children_Comedy_Mystery",2.2500,4,9.0000
7371,"Drama_Mystery_Thriller",4.0250,20,80.5000
7372,"Drama",3.0000,1,3.0000
7373,"Action_Adventure_Fantasy_Horror",3.3780,41,138.5000
7375,"Comedy_Romance",3.0714,7,21.5000
7376,"Action",3.0000,6,18.0000
7377,"Crime_Drama",3.5000,1,3.5000
7379,"Drama_War_Western",3.5000,6,21.0000
7380,"Comedy_Fantasy_Romance",3.3571,7,23.5000
7381,"Action_Comedy_Crime",3.1429,7,22.0000
7382,"Drama_Mystery_Thriller",4.2500,2,8.5000
7386,"Adventure_Drama",3.7500,4,15.0000
7387,"Action_Drama_Horror",3.9750,20,79.5000
7390,"Drama_Musical",1.5000,1,1.5000
7394,"Action_Adventure_Comedy",2.5000,1,2.5000
7395,"Comedy_Drama",2.7500,2,5.5000
7396,"Drama",4.0000,7,28.0000
7411,"Comedy_Horror",1.5000,1,1.5000
7414,"Comedy_Drama",2.5000,1,2.5000
7419,"Comedy_Thriller",3.7857,7,26.5000
7438,"Action_Drama_Thriller",3.8682,110,425.5000
7439,"Action_Crime_Thriller",3.5000,14,49.0000
7440,"Documentary",3.2500,2,6.5000
7443,"Documentary",3.5000,1,3.5000
7444,"Comedy_Fantasy_Romance",3.1905,21,67.0000
7445,"Action_Crime_Drama_Mystery_Thriller",3.6286,35,127.0000
7448,"Comedy",2.7500,4,11.0000
7449,"Drama_Horror_Thriller",2.5000,2,5.0000
7450,"Comedy_Romance",2.7500,4,11.0000
7451,"Comedy",3.7564,39,146.5000
7454,"Action_Adventure_Fantasy_Horror",2.7083,24,65.0000
7455,"Drama",3.0000,1,3.0000
7457,"Comedy_Romance",3.5000,1,3.5000
7458,"Action_Adventure_Drama_War",3.4271,48,164.5000
7459,"Crime_Drama",4.5000,1,4.5000
7460,"Comedy_Drama",3.5833,6,21.5000
7477,"Horror_Thriller",2.5000,1,2.5000
7479,"Drama",4.0000,1,4.0000
7481,"Adventure_Drama_Sci-Fi",4.0000,4,16.0000
7482,"Action_Crime",4.0385,13,52.5000
7486,"Drama_Romance",4.7500,2,9.5000
7487,"Drama",4.0000,1,4.0000
7492,"Drama_Horror",4.0000,1,4.0000
7493,"Drama",4.0000,2,8.0000
7541,"Comedy_Romance",3.2500,4,13.0000
7560,"Drama_Thriller_War",4.0000,1,4.0000
7561,"Fantasy_Horror_Thriller",3.5000,1,3.5000
7562,"Action_Crime",2.5000,1,2.5000
7564,"Horror",2.5000,2,5.0000
7566,"Documentary",4.0000,3,12.0000
7569,"Action_Adventure_Sci-Fi_Thriller",3.8333,12,46.0000
7570,"Action_Adventure_Thriller",3.3125,8,26.5000
7572,"Drama",4.5000,1,4.5000
7573,"Action_Adventure_Thriller",3.1250,8,25.0000
7579,"Comedy_Drama_Romance",3.6667,3,11.0000
7581,"Drama",3.2500,2,6.5000
7584,"Comedy_Romance",4.0000,2,8.0000
7587,"Crime_Drama_Thriller",4.0000,4,16.0000
7614,"Musical_Romance_Western",4.5000,2,9.0000
7615,"Drama",4.5000,1,4.5000
7616,"Mystery_Thriller",2.5000,1,2.5000
7618,"Drama",3.5000,2,7.0000
7619,"Drama",3.6667,3,11.0000
7620,"Comedy_Drama",4.0000,1,4.0000
7624,"Drama",2.7500,6,16.5000
7636,"Horror_Thriller",0.5000,1,0.5000
7646,"Horror_Mystery_Thriller",3.0000,2,6.0000
7647,"Comedy",3.7500,2,7.5000
7649,"Adventure_Sci-Fi",2.8000,5,14.0000
7650,"Horror",2.0000,3,6.0000
7657,"Action_Comedy_Fantasy_Horror",3.7500,2,7.5000
7669,"Drama_Romance",3.5556,9,32.0000
7698,"Drama_Thriller",3.7000,5,18.5000
7700,"Action_Adventure_Drama_Thriller",3.3000,5,16.5000
7701,"Comedy_Romance",1.7857,7,12.5000
7702,"Drama",3.5000,1,3.5000
7704,"Action",2.0000,1,2.0000
7705,"Comedy_Romance",4.0000,2,8.0000
7706,"Comedy_Musical",4.1250,4,16.5000
7707,"Comedy_Drama_Romance",2.0000,1,2.0000
7708,"Comedy_Fantasy",2.0000,1,2.0000
7713,"Drama_Horror_Romance_Thriller",4.0000,1,4.0000
7714,"Drama_Musical_Romance",4.0000,1,4.0000
7716,"Comedy",3.5000,1,3.5000
7720,"Action_Adventure_Comedy_Romance",2.7500,4,11.0000
7727,"Comedy",3.0000,1,3.0000
7728,"Crime_Drama_Film-Noir_Thriller",3.6667,3,11.0000
7730,"Comedy_Drama",3.0000,1,3.0000
7742,"Drama_Horror",0.5000,1,0.5000
7743,"Adventure_Children_Sci-Fi",3.5000,2,7.0000
7745,"Drama",4.0000,1,4.0000
7748,"Crime_Drama",3.8750,4,15.5000
7749,"Drama",4.0000,1,4.0000
7753,"Drama",3.5000,2,7.0000
7756,"Action_Drama_War",4.0000,2,8.0000
7757,"Action_Adventure_Fantasy",3.5000,6,21.0000
7762,"Drama_Thriller",3.6250,4,14.5000
7766,"Action_Drama_Thriller_War",4.0000,4,16.0000
7767,"Drama",4.7500,2,9.5000
7772,"Film-Noir_Thriller",3.5000,1,3.5000
7773,"Drama",4.0000,2,8.0000
7781,"Comedy",1.5000,1,1.5000
7782,"Action_Drama",3.0000,2,6.0000
7786,"Documentary",3.5000,1,3.5000
7789,"Drama",4.0000,2,8.0000
7802,"Action_Adventure_Crime_Thriller",3.9375,8,31.5000
7810,"Adventure_Sci-Fi",3.3333,3,10.0000
7811,"Drama_Sci-Fi",4.0000,1,4.0000
7812,"Drama_Sci-Fi",3.6667,3,11.0000
7815,"Comedy_Musical",5.0000,1,5.0000
7820,"Crime_Drama",3.7500,2,7.5000
7822,"Adventure_Drama_Romance",3.0000,1,3.0000
7826,"Comedy_Romance_Thriller",3.5000,1,3.5000
7831,"Comedy_Crime_Drama_Mystery_Romance",3.5000,1,3.5000
7832,"Comedy_Crime_Mystery",3.5000,1,3.5000
7833,"Comedy_Crime_Mystery",3.5000,1,3.5000
7834,"Comedy_Crime_Mystery_Romance",2.8333,3,8.5000
7835,"Comedy_Crime_Drama_Musical_Mystery_Romance",3.5000,1,3.5000
7839,"Comedy",3.5000,1,3.5000
7840,"Adventure_Comedy_War",3.1667,3,9.5000
7841,"Fantasy_Sci-Fi",3.7500,2,7.5000
7842,"Drama_Fantasy_Sci-Fi",4.3750,4,17.5000
7843,"Comedy",4.5000,1,4.5000
7844,"Action_Comedy",3.5000,2,7.0000
7845,"Comedy_Horror_Sci-Fi",2.7000,5,13.5000
7846,"Comedy_Horror_Sci-Fi",3.0000,3,9.0000
7879,"Comedy",3.5000,1,3.5000
7882,"Horror",3.0000,1,3.0000
7883,"Drama_Horror",2.0000,2,4.0000
7884,"Comedy",3.2500,2,6.5000
7888,"Comedy_Musical",4.2500,2,8.5000
7889,"Western",3.7500,2,7.5000
7891,"Drama_Horror_Sci-Fi",3.0000,1,3.0000
7894,"Action_Western",3.5000,4,14.0000
7895,"Crime_Drama_Thriller",3.5000,2,7.0000
7896,"Adventure_Drama_Western",3.5000,1,3.5000
7899,"Action",4.5000,1,4.5000
7900,"Drama_Horror_Sci-Fi",3.0000,1,3.0000
7916,"Comedy",3.5000,1,3.5000
7920,"Comedy_Crime",3.5000,1,3.5000
7924,"Drama_Film-Noir_Thriller",3.5000,1,3.5000
7925,"Action_Adventure",4.2500,2,8.5000
7926,"Crime_Drama_Film-Noir_Thriller",4.0000,1,4.0000
7930,"Horror_Mystery_Thriller",3.7500,2,7.5000
7932,"Documentary",3.6667,3,11.0000
7934,"Comedy",4.0000,7,28.0000
7936,"Drama_War",4.0000,1,4.0000
7937,"Drama",3.5000,2,7.0000
7938,"Drama",3.5000,1,3.5000
7939,"Drama",4.5000,1,4.5000
7940,"Drama",4.5000,1,4.5000
7943,"Crime_Film-Noir",4.0000,1,4.0000
7944,"Drama_Thriller",3.0000,1,3.0000
7951,"Fantasy_Horror",2.0000,1,2.0000
7976,"Drama",4.5000,1,4.5000
7979,"Documentary_Musical",3.5000,1,3.5000
7980,"Action_Drama_War",3.7857,7,26.5000
7981,"Crime_Drama_Thriller",4.3333,9,39.0000
7982,"Drama_Horror_Mystery_Thriller",3.2500,4,13.0000
7983,"Comedy",4.2000,5,21.0000
7984,"Horror_Sci-Fi",4.0000,1,4.0000
7986,"Sci-Fi",1.0000,1,1.0000
7987,"Horror",2.5000,1,2.5000
7988,"Comedy_Sci-Fi",2.0000,1,2.0000
7991,"Action_Sci-Fi",3.6667,3,11.0000
7993,"Comedy_Horror",2.5000,1,2.5000
8008,"Fantasy_Musical_Romance",4.0000,3,12.0000
8010,"Drama",4.0000,1,4.0000
8011,"Documentary",4.0000,4,16.0000
8012,"Comedy_Drama",3.6667,3,11.0000
8014,"Drama",4.2500,10,42.5000
8015,"Adventure_Animation_Children_Fantasy",3.5000,1,3.5000
8016,"Action_Crime_Drama_Thriller",4.0000,2,8.0000
8019,"Drama_Horror_Mystery_Thriller",4.0000,1,4.0000
8024,"Comedy_Drama_Romance",3.5000,2,7.0000
8025,"Drama",4.5000,1,4.5000
8033,"Comedy_Crime_Romance",3.6667,3,11.0000
8035,"Crime_Horror_Thriller",2.0000,2,4.0000
8042,"Crime_Drama",4.0000,7,28.0000
8043,"Comedy_Drama",1.5000,1,1.5000
8044,"Crime_Drama_Film-Noir",3.6667,3,11.0000
8045,"Action_Drama_War",2.0000,1,2.0000
8057,"Drama",3.0000,1,3.0000
8092,"Drama_Horror_Sci-Fi",3.0000,1,3.0000
8093,"Action_Drama_Romance_Thriller",3.5000,1,3.5000
8094,"Drama_Thriller_Western",3.5000,1,3.5000
8117,"Action_Comedy",4.0000,1,4.0000
8118,"Action_Adventure_Thriller_War",4.0000,1,4.0000
8119,"Drama",3.0000,3,9.0000
8121,"Comedy",2.0000,2,4.0000
8125,"Drama_Romance",4.0000,1,4.0000
8126,"Drama",3.5000,1,3.5000
8128,"Drama",4.1000,5,20.5000
8131,"Comedy_Romance",3.5000,1,3.5000
8132,"Action_Drama",4.3333,9,39.0000
8136,"Crime_Horror_Sci-Fi",0.5000,1,0.5000
8137,"Horror_Sci-Fi",0.5000,1,0.5000
8138,"Horror_Sci-Fi",2.2500,2,4.5000
8142,"Action_Crime",4.2500,2,8.5000
8143,"Drama",3.5000,1,3.5000
8147,"Drama_Sci-Fi",4.0000,1,4.0000
8153,"Drama",2.5000,1,2.5000
8154,"Drama",3.7500,6,22.5000
8157,"Animation_Fantasy_Thriller",3.5000,5,17.5000
8158,"Crime_Drama",4.0000,1,4.0000
8167,"Action_Adventure_Romance",4.0000,2,8.0000
8169,"Children_Comedy_Fantasy_Sci-Fi",3.2857,7,23.0000
8183,"Comedy_Drama",3.1667,3,9.5000
8188,"Drama",3.5000,1,3.5000
8189,"Comedy",3.0000,1,3.0000
8190,"Comedy_Drama_War",4.0000,1,4.0000
8191,"Drama",4.0000,1,4.0000
8195,"Drama_Mystery_Romance",4.0000,2,8.0000
8196,"Comedy_Horror",3.5000,1,3.5000
8197,"Drama_Romance_War",4.0000,1,4.0000
8199,"Drama_Thriller",2.5000,2,5.0000
8207,"Crime_Thriller",4.0833,6,24.5000
8225,"Horror",4.0000,1,4.0000
8228,"Mystery",3.6176,17,61.5000
8232,"Comedy_Drama",3.5000,1,3.5000
8235,"Action_Comedy_Romance",4.0000,2,8.0000
8236,"Drama_Film-Noir",0.5000,1,0.5000
8238,"Comedy_Crime",5.0000,1,5.0000
8239,"Comedy_Drama",4.0000,1,4.0000
8241,"Action_Comedy_Thriller",4.0000,1,4.0000
8253,"Action_Adventure_Animation_Comedy_Crime_Mystery",3.4000,5,17.0000
8254,"Comedy_Drama_Fantasy_Romance",4.2500,6,25.5000
8261,"Drama",4.1667,3,12.5000
8264,"Documentary",3.5000,1,3.5000
8266,"Drama_Musical",2.7000,5,13.5000
8268,"Action_Thriller",4.2500,2,8.5000
8270,"Comedy_Drama_Romance",3.7500,2,7.5000
8275,"Comedy",3.5000,1,3.5000
8290,"Action_Crime",0.7500,2,1.5000
8293,"Comedy_Drama",3.5000,1,3.5000
8302,"Comedy_Drama_Romance",3.5000,1,3.5000
8327,"Drama_Romance",4.2500,2,8.5000
8331,"Comedy",4.0000,1,4.0000
8335,"Drama",3.5000,1,3.5000
8336,"Comedy_Romance",3.5000,1,3.5000
8337,"Drama_War",4.0000,2,8.0000
8338,"Drama",4.0000,1,4.0000
8340,"Drama_Thriller",3.7857,7,26.5000
8341,"Adventure_Crime_Drama",3.8333,3,11.5000
8360,"Adventure_Animation_Children_Comedy_Musical_Romance",3.5761,92,329.0000
8361,"Action_Adventure_Drama_Sci-Fi_Thriller",3.0500,50,152.5000
8362,"Comedy_Drama_Romance",2.7500,4,11.0000
8363,"Comedy",3.7500,2,7.5000
8364,"Drama",3.3750,4,13.5000
8366,"Comedy_Drama",3.8929,14,54.5000
8368,"Adventure_Fantasy_IMAX",3.9140,93,364.0000
8369,"Action_Crime_Horror_Mystery_Thriller",2.6667,3,8.0000
8370,"Action_Comedy_Crime_Drama",3.9583,12,47.5000
8371,"Action_Sci-Fi_Thriller",3.3043,23,76.0000
8372,"Animation_Children_Comedy",2.3000,5,11.5000
8373,"Comedy_Fantasy_Thriller",2.2500,12,27.0000
8375,"Documentary",2.5000,1,2.5000
8376,"Comedy",3.3243,37,123.0000
8378,"Drama",4.0000,1,4.0000
8379,"Drama",3.0000,1,3.0000
8380,"Comedy",2.5000,1,2.5000
8382,"Comedy",2.5000,1,2.5000
8383,"Comedy_Romance",1.0000,1,1.0000
8385,"Comedy_Romance",3.0000,1,3.0000
8387,"Comedy_Crime",0.8000,5,4.0000
8391,"Comedy_Drama",3.0000,1,3.0000
8402,"Comedy_Romance",2.0000,1,2.0000
8405,"Drama_Horror",4.5000,2,9.0000
8410,"Crime_Drama_Film-Noir",3.5000,1,3.5000
8424,"Drama_Romance",4.0000,1,4.0000
8425,"Comedy",2.0000,1,2.0000
8426,"Animation_Comedy_Drama_Fantasy_Sci-Fi",4.0000,1,4.0000
8427,"Comedy_Sci-Fi",1.5000,1,1.5000
8446,"Action_Drama_Romance_War",2.5000,1,2.5000
8447,"Sci-Fi",1.0000,1,1.0000
8450,"Adventure_Romance",3.0000,1,3.0000
8451,"Drama",3.2500,2,6.5000
8454,"Comedy_Drama_Fantasy",3.5000,1,3.5000
8456,"Crime_Drama_Thriller",4.0000,1,4.0000
8458,"Drama",3.5000,1,3.5000
8459,"Drama_Romance",3.5000,1,3.5000
8461,"Drama_War",3.5000,1,3.5000
8462,"Drama",3.0000,1,3.0000
8463,"Drama",4.0000,1,4.0000
8464,"Comedy_Documentary_Drama",3.5100,50,175.5000
8465,"Crime_Drama_Film-Noir_Romance",3.5000,1,3.5000
8477,"Romance_Sci-Fi",4.5000,2,9.0000
8481,"Action_Adventure_Drama_Romance_Thriller_Western",3.0000,1,3.0000
8482,"Drama_Fantasy_Horror",2.0000,2,4.0000
8484,"Drama_War",4.5000,1,4.5000
8487,"Children_Comedy_Musical",3.5000,2,7.0000
8491,"Crime_Drama_Film-Noir",3.6667,3,11.0000
8492,"Drama_Fantasy",3.2500,2,6.5000
8493,"Action_Drama_War",3.0833,6,18.5000
8494,"Drama",0.5000,1,0.5000
8495,"Crime_Drama",2.5000,1,2.5000
8500,"Action_Horror_Sci-Fi",2.5000,1,2.5000
8501,"Action_Thriller",3.6250,4,14.5000
8502,"Drama_Musical_Romance",3.0000,1,3.0000
8506,"Mystery_Thriller",2.2500,2,4.5000
8507,"Crime_Drama_Horror",3.1667,9,28.5000
8511,"Comedy",4.5000,1,4.5000
8512,"Comedy",3.5000,1,3.5000
8518,"Drama",3.5000,1,3.5000
8521,"Drama_Horror",2.0000,2,4.0000
8526,"Adventure_Children_Comedy",2.5000,3,7.5000
8528,"Comedy",3.5513,39,138.5000
8529,"Comedy_Drama_Romance",3.3191,47,156.0000
8530,"Drama_Romance",3.7500,2,7.5000
8531,"Action_Comedy_Crime",2.8333,6,17.0000
8532,"Drama",2.5000,1,2.5000
8533,"Drama_Romance",3.5658,38,135.5000
8534,"Adventure_Children_Drama",3.5000,1,3.5000
8535,"Drama_Musical",4.0000,1,4.0000
8542,"Comedy_Musical",4.0000,3,12.0000
8571,"Comedy_Drama",3.5000,1,3.5000
8574,"Animation_Children_Comedy_Musical",1.5000,2,3.0000
8575,"Comedy_Drama",3.0000,1,3.0000
8577,"Documentary",4.0000,1,4.0000
8578,"Action_Comedy_Horror_Sci-Fi",3.2500,2,6.5000
8580,"Adventure_Comedy_Fantasy_Musical",5.0000,1,5.0000
8581,"Documentary_Drama",4.0000,4,16.0000
8582,"Documentary_War",4.2500,2,8.5000
8587,"Documentary",3.5000,1,3.5000
8588,"Drama_Mystery_Romance_Thriller",4.0000,1,4.0000
8591,"Adventure_Drama_Sci-Fi",3.5000,1,3.5000
8593,"Action_Crime_Drama_Thriller",4.0000,1,4.0000
8596,"Comedy_Crime",3.2500,2,6.5000
8600,"Crime_Drama_Film-Noir_Thriller",3.7500,2,7.5000
8601,"Comedy_Drama",4.0000,1,4.0000
8604,"Action_Comedy",3.2000,5,16.0000
8605,"Action_Comedy",3.2500,2,6.5000
8607,"Adventure_Animation_Drama",3.9000,5,19.5000
8609,"Comedy",3.2500,2,6.5000
8610,"Comedy_Fantasy",2.5000,2,5.0000
8611,"Comedy",3.5000,1,3.5000
8614,"Comedy_Romance",3.0000,6,18.0000
8617,"Drama",3.0000,1,3.0000
8620,"Comedy_Drama_Fantasy_Mystery",1.5000,2,3.0000
8622,"Documentary",3.4865,37,129.0000
8623,"Comedy_Romance",3.2727,11,36.0000
8626,"Horror_Sci-Fi",1.5000,1,1.5000
8632,"Comedy",0.5000,1,0.5000
8633,"Action_Adventure_Comedy_Sci-Fi",3.5714,7,25.0000
8636,"Action_Adventure_Sci-Fi_IMAX",3.8038,79,300.5000
8638,"Drama_Romance",3.7000,15,55.5000
8640,"Action_Adventure_Drama_War",2.9615,13,38.5000
8641,"Comedy",3.7719,57,215.0000
8643,"Comedy_Romance",3.2778,9,29.5000
8644,"Action_Adventure_Sci-Fi_Thriller",3.4918,61,213.0000
8645,"Crime_Drama",3.9375,8,31.5000
8650,"Drama",3.5000,1,3.5000
8656,"Crime_Drama",3.7500,2,7.5000
8665,"Action_Crime_Thriller",3.7867,75,284.0000
8666,"Action_Crime_Fantasy",1.3333,9,12.0000
8667,"Drama_Romance",3.5000,1,3.5000
8670,"Crime_Horror_Mystery_Thriller",4.0000,1,4.0000
8677,"Action_Sci-Fi",1.2500,2,2.5000
8684,"Adventure_Drama",3.5000,1,3.5000
8685,"Comedy_Drama",3.5000,1,3.5000
8690,"Comedy_Drama_Sci-Fi_War",4.0000,1,4.0000
8695,"Comedy",3.0000,3,9.0000
8711,"Comedy",3.0000,1,3.0000
8712,"Comedy_Romance",3.0000,1,3.0000
8713,"Adventure_Children_Fantasy_Musical",3.0000,1,3.0000
8714,"Drama_Musical",2.5000,1,2.5000
8718,"Drama",3.5000,2,7.0000
8720,"Comedy",2.0000,1,2.0000
8724,"Drama_War",4.2500,2,8.5000
8727,"Drama",2.0000,1,2.0000
8730,"Action_Drama_War",4.0000,2,8.0000
8738,"Comedy_Drama_Musical_Romance",5.0000,1,5.0000
8743,"Adventure_Fantasy_Sci-Fi",3.0000,2,6.0000
8748,"Comedy",4.0000,2,8.0000
8753,"Documentary",3.5000,1,3.5000
8754,"Drama",4.0000,1,4.0000
8755,"Documentary",3.0000,1,3.0000
8771,"Crime_Mystery_Thriller",3.0000,1,3.0000
8772,"Drama_Thriller",0.5000,1,0.5000
8773,"Crime_Mystery_Thriller",3.0000,1,3.0000
8774,"Mystery",3.5000,1,3.5000
8778,"Crime_Mystery",3.7500,2,7.5000
8781,"Thriller",3.0417,12,36.5000
8782,"Action_Adventure_Fantasy_Sci-Fi",2.7500,2,5.5000
8783,"Drama_Mystery_Thriller",3.1923,26,83.0000
8784,"Comedy_Drama_Romance",3.7083,48,178.0000
8795,"Action_Adventure_Drama_War",4.5000,1,4.5000
8796,"Comedy_Musical",3.1000,5,15.5000
8798,"Action_Crime_Drama_Thriller",3.7614,44,165.5000
8799,"Comedy_Romance",2.1667,3,6.5000
8800,"Romance_Sci-Fi",4.5000,1,4.5000
8804,"Drama",5.0000,1,5.0000
8807,"Adventure_Comedy",3.4559,34,117.5000
8808,"Comedy_Romance",2.5000,7,17.5000
8809,"Comedy_Romance",3.2500,2,6.5000
8810,"Action_Horror_Sci-Fi_Thriller",2.8235,17,48.0000
8813,"Drama",4.0000,2,8.0000
8814,"Comedy",2.0000,7,14.0000
8815,"Horror_Thriller",2.5000,3,7.5000
8827,"Comedy_Documentary",4.0000,5,20.0000
8830,"Adventure_Drama_Horror_Sci-Fi_Thriller",1.7500,2,3.5000
8831,"Crime_Thriller",3.5000,1,3.5000
8832,"Action_Adventure_Drama",3.2500,2,6.5000
8833,"Drama_Romance",3.5000,3,10.5000
8835,"Drama_Thriller",2.3333,3,7.0000
8836,"Drama_Romance_Thriller",3.3333,3,10.0000
8838,"Drama_Romance",4.1667,3,12.5000
8840,"Drama",1.0000,1,1.0000
8844,"Drama",3.0000,1,3.0000
8848,"Drama",3.5000,2,7.0000
8860,"Action_Crime_Drama_Mystery_Thriller",2.8571,7,20.0000
8861,"Action_Horror_Sci-Fi_Thriller",2.9286,14,41.0000
8864,"Comedy_Drama",2.6667,3,8.0000
8865,"Action_Adventure_Sci-Fi",2.6389,18,47.5000
8866,"Comedy_Romance",3.1111,9,28.0000
8869,"Comedy_Romance",3.3333,6,20.0000
8870,"Drama_Mystery_Sci-Fi_Thriller",2.5000,5,12.5000
8873,"Adventure_Drama",3.7963,27,102.5000
8874,"Comedy_Horror",4.0065,77,308.5000
8875,"Drama",4.0000,1,4.0000
8879,"Crime_Mystery_Thriller",3.2500,6,19.5000
8880,"Drama",3.4286,7,24.0000
8894,"Action_Drama_Horror_Thriller",1.5000,1,1.5000
8905,"Adventure_Drama",2.5000,1,2.5000
8906,"Horror",2.6667,3,8.0000
8907,"Animation_Children_Comedy",2.3462,13,30.5000
8908,"Action_Drama_Thriller",3.6667,6,22.0000
8910,"Comedy",3.4524,21,72.5000
8911,"Romance",5.0000,1,5.0000
8912,"Action_Comedy",1.7500,2,3.5000
8914,"Drama_Sci-Fi",3.7941,17,64.5000
8915,"Drama",3.5000,1,3.5000
8916,"Comedy_Romance",3.0000,3,9.0000
8917,"Action_Adventure_Animation_Comedy",3.4688,32,111.0000
8918,"Comedy_Crime_Drama",3.0000,1,3.0000
8919,"Comedy_Drama_Fantasy_Romance",4.2500,2,8.5000
8920,"Drama",3.5000,1,3.5000
8921,"Drama_Romance",3.5000,1,3.5000
8928,"Comedy_Horror",3.6667,3,11.0000
8933,"Comedy_Drama",4.0000,1,4.0000
8934,"Animation_Children_Comedy",1.0000,1,1.0000
8937,"Action_Drama",3.5625,8,28.5000
8938,"Documentary",4.0000,1,4.0000
8939,"Sci-Fi_Thriller",3.6667,3,11.0000
8943,"Comedy_Drama",1.7500,2,3.5000
8946,"Comedy",2.7500,2,5.5000
8947,"Horror_Mystery_Thriller",2.3000,10,23.0000
8948,"Comedy_Drama_Romance",2.3333,3,7.0000
8949,"Comedy_Drama_Romance",3.7436,39,146.0000
8950,"Drama_Mystery_Thriller",3.9868,38,151.5000
8951,"Drama",3.0000,4,12.0000
8952,"Drama",3.5000,1,3.5000
8954,"Documentary",4.0000,1,4.0000
8955,"Crime_Drama_Thriller",3.0000,1,3.0000
8957,"Horror_Mystery_Thriller",3.1818,33,105.0000
8958,"Drama",3.6842,19,70.0000
8959,"Drama_Mystery",2.5000,3,7.5000
8961,"Action_Adventure_Animation_Children_Comedy",3.8360,125,479.5000
8964,"Drama",3.0000,1,3.0000
8965,"Adventure_Animation_Children_Fantasy_IMAX",3.1364,11,34.5000
8966,"Drama",3.1250,8,25.0000
8967,"Comedy_Horror",1.7500,4,7.0000
8968,"Action_Adventure_Comedy_Crime_Thriller",3.5833,6,21.5000
8969,"Comedy_Drama_Romance",3.0250,20,60.5000
8970,"Drama",3.6094,32,115.5000
8972,"Action_Adventure_Drama_Mystery_Thriller",3.2632,38,124.0000
8973,"Drama_Thriller",3.7500,8,30.0000
8974,"Adventure_Animation_Children_Comedy",3.0000,2,6.0000
8977,"Action_Adventure_Drama_War",2.2000,10,22.0000
8978,"Children_Comedy",2.5000,2,5.0000
8979,"Documentary",4.0000,1,4.0000
8981,"Drama_Romance",3.7188,16,59.5000
8982,"Drama",3.0000,3,9.0000
8983,"Action_Drama_Romance",3.5200,25,88.0000
8984,"Action_Comedy_Crime_Thriller",3.2907,43,141.5000
8985,"Action_Fantasy_Horror_Thriller",2.8571,14,40.0000
8987,"Documentary",3.0000,1,3.0000
8989,"Comedy_Musical",3.5000,1,3.5000
8998,"Documentary",4.0000,1,4.0000
9004,"Adventure_Children_Sci-Fi",2.0000,1,2.0000
9005,"Drama_Mystery_Sci-Fi",2.0000,2,4.0000
9008,"Horror_Sci-Fi",2.5000,1,2.5000
9010,"Drama_Romance",4.1000,5,20.5000
9018,"Documentary_War",4.3333,3,13.0000
25746,"Drama_Horror",3.0000,1,3.0000
25750,"Comedy_Fantasy_Romance",3.0000,2,6.0000
25752,"Comedy",4.0000,1,4.0000
25753,"Drama",4.0000,1,4.0000
25757,"Drama_Musical_Romance",4.0000,1,4.0000
25769,"Comedy_Romance",4.5000,1,4.5000
25771,"Fantasy",4.5000,4,18.0000
25773,"Crime_Drama",4.0000,1,4.0000
25782,"Comedy",0.5000,1,0.5000
25788,"Crime_Drama",3.7500,2,7.5000
25795,"Comedy_Drama_Romance",3.5000,1,3.5000
25797,"Musical",3.5000,1,3.5000
25805,"Comedy_Drama_Romance",4.5000,1,4.5000
25825,"Drama_Film-Noir",3.3750,4,13.5000
25826,"Comedy_Romance",3.5000,1,3.5000
25827,"Comedy_Romance",3.5000,2,7.0000
25833,"Drama_Romance",4.0000,1,4.0000
25834,"Adventure_Drama",4.0000,1,4.0000
25841,"Drama",4.1667,3,12.5000
25850,"Comedy_Drama_Romance",3.0000,3,9.0000
25856,"Drama_Romance",3.2500,2,6.5000
25865,"Drama_Film-Noir",4.0000,1,4.0000
25870,"Comedy_Fantasy_Romance",3.5000,1,3.5000
25886,"Drama_Romance",4.0000,2,8.0000
25887,"Comedy_Drama",5.0000,1,5.0000
25898,"Drama",4.0000,2,8.0000
25905,"Comedy_Romance",3.5000,1,3.5000
25906,"Drama_Romance",5.0000,1,5.0000
25923,"Drama",3.5000,1,3.5000
25927,"Drama_Film-Noir_Thriller",3.0000,1,3.0000
25937,"Musical_Romance",3.3333,3,10.0000
25940,"Drama_Film-Noir_Mystery",3.5000,1,3.5000
25946,"Action_Adventure_Drama_Romance",3.5000,1,3.5000
25947,"Comedy",5.0000,1,5.0000
25952,"Comedy_Drama",4.0000,1,4.0000
25959,"Comedy_Musical_Romance_Western",2.5000,1,2.5000
25962,"Action_Adventure_Romance",3.0000,1,3.0000
25963,"Crime_Drama",4.0000,1,4.0000
25996,"Drama_Musical",3.5000,1,3.5000
25999,"Drama",3.5000,1,3.5000
26002,"Crime_Drama_Mystery_Thriller",3.5000,1,3.5000
26003,"Crime_Documentary_War",4.5000,1,4.5000
26038,"Comedy_Romance",4.0000,1,4.0000
26048,"Drama_War",4.5000,1,4.5000
26052,"Crime_Drama",2.7500,2,5.5000
26059,"Drama",4.5000,1,4.5000
26073,"Drama_War",5.0000,1,5.0000
26078,"Drama",5.0000,1,5.0000
26082,"Drama",4.5000,3,13.5000
26084,"Children_Comedy_Musical_Romance",3.9000,5,19.5000
26095,"Comedy_Drama_War",0.5000,1,0.5000
26116,"Horror_Thriller",4.5000,2,9.0000
26122,"Drama_Horror_War",4.5000,1,4.5000
26124,"Sci-Fi",2.0000,1,2.0000
26131,"Drama_War",4.3000,5,21.5000
26133,"Animation_Children_Comedy",4.0000,6,24.0000
26142,"Adventure_War_Western",2.0000,1,2.0000
26147,"Comedy_Drama_Romance",5.0000,1,5.0000
26150,"Drama_War",4.5000,1,4.5000
26151,"Crime_Drama",3.5000,2,7.0000
26152,"Action_Adventure_Comedy",3.0000,5,15.0000
26158,"Comedy_Drama_War",4.0000,1,4.0000
26159,"Action_Crime_Drama",3.7500,2,7.5000
26169,"Action_Crime_Drama",5.0000,1,5.0000
26171,"Comedy",3.1667,3,9.5000
26172,"Action_Crime_Drama_Thriller",3.0000,2,6.0000
26176,"Documentary_Drama",2.5000,1,2.5000
26183,"Action_Adventure_Animation_Children_Comedy",4.2500,2,8.5000
26184,"Action_Adventure_Comedy_Crime_Thriller",3.5000,2,7.0000
26195,"Documentary_Musical",3.0000,1,3.0000
26198,"Children_Comedy",2.7500,2,5.5000
26225,"Comedy_Romance",4.5000,1,4.5000
26231,"Crime_Drama_Thriller",4.0000,1,4.0000
26236,"Action_Adventure_Comedy_Drama_Romance_War",4.0000,1,4.0000
26237,"Drama_Romance",4.0000,1,4.0000
26242,"Action_Mystery_Thriller",3.2000,5,16.0000
26249,"Comedy_Western",3.7500,2,7.5000
26258,"Fantasy_Western",3.9000,5,19.5000
26265,"Adventure_Comedy_Horror_Romance",4.5000,1,4.5000
26283,"Crime_Drama_Thriller",3.0000,1,3.0000
26285,"Comedy_Sci-Fi_Thriller",2.5000,1,2.5000
26303,"Horror_Thriller",4.0000,1,4.0000
26308,"Drama_Romance",4.0000,1,4.0000
26313,"Comedy_Drama",4.0000,1,4.0000
26317,"Drama_Romance",3.5000,1,3.5000
26322,"Action_Crime_Drama",3.1250,4,12.5000
26326,"Drama",4.5000,2,9.0000
26340,"Action_Adventure_Animation_Children_Comedy_Fantasy",3.6667,3,11.0000
26344,"Action_Crime_Drama_Thriller",3.0000,1,3.0000
26347,"Comedy_Drama_Romance",4.0000,1,4.0000
26350,"Drama",5.0000,1,5.0000
26357,"Horror_Thriller",4.0000,1,4.0000
26359,"Drama_War",4.5000,1,4.5000
26365,"Sci-Fi_Thriller",2.5000,1,2.5000
26366,"Documentary",5.0000,1,5.0000
26375,"Action_Comedy_Crime",3.6667,3,11.0000
26386,"Comedy_Thriller",3.5000,1,3.5000
26391,"Drama_Musical_Romance",2.5000,1,2.5000
26394,"Drama_Romance",4.0000,1,4.0000
26399,"Action",3.5000,1,3.5000
26401,"Action_Drama",5.0000,1,5.0000
26409,"Horror_Sci-Fi",2.7500,2,5.5000
26413,"Action_Comedy",3.2500,2,6.5000
26422,"Comedy_Drama_Musical",3.1667,3,9.5000
26429,"Comedy_Horror_Romance",4.0000,1,4.0000
26444,"Adventure_Comedy_Sci-Fi",4.0000,2,8.0000
26453,"Drama_Mystery",4.0000,1,4.0000
26464,"Action_Crime_Drama",3.0000,1,3.0000
26467,"Drama_Sci-Fi",3.0000,1,3.0000
26471,"Comedy_Documentary",4.3750,4,17.5000
26472,"Adventure_Drama",3.5000,1,3.5000
26492,"Fantasy_Horror_Sci-Fi_Thriller",3.0000,3,9.0000
26498,"Drama",3.0000,1,3.0000
26504,"Action_Adventure_Children_Crime_Mystery_Thriller",3.2500,2,6.5000
26510,"Adventure_Children_Fantasy_Sci-Fi",2.2500,2,4.5000
26523,"Horror_Thriller",3.5000,1,3.5000
26524,"Documentary",4.5000,2,9.0000
26527,"Comedy_Drama",4.0000,1,4.0000
26528,"Children_Drama",4.5000,3,13.5000
26539,"Drama",3.0000,1,3.0000
26542,"Adventure_Children_Fantasy_Sci-Fi",3.0000,2,6.0000
26547,"Action_Comedy_Crime_Thriller",4.2500,2,8.5000
26554,"Drama_Mystery_Sci-Fi",4.2500,2,8.5000
26555,"Comedy",2.7500,2,5.5000
26562,"Drama",3.0000,1,3.0000
26564,"Drama_Musical",3.5000,2,7.0000
26567,"Comedy",2.0000,1,2.0000
26578,"Drama",4.1667,3,12.5000
26585,"Crime_Drama_Thriller",3.8333,3,11.5000
26587,"Crime_Drama_Romance",5.0000,1,5.0000
26590,"Action_Adventure_Animation_Children_Fantasy_Sci-Fi",2.0000,1,2.0000
26593,"Action_Comedy_Sci-Fi",2.0000,1,2.0000
26599,"Comedy_Drama_Romance",4.0000,1,4.0000
26603,"Fantasy_Horror_Sci-Fi_Thriller",4.5000,1,4.5000
26606,"Action_Fantasy_Horror_Romance",4.2500,2,8.5000
26612,"Crime_Drama_Thriller",4.0000,2,8.0000
26614,"Action_Adventure_Drama_Mystery_Thriller",3.3889,9,30.5000
26622,"Drama",3.0000,1,3.0000
26629,"Comedy_Horror_Sci-Fi",2.0000,3,6.0000
26630,"Musical",3.0000,1,3.0000
26631,"Animation_Fantasy_Mystery",3.7500,2,7.5000
26645,"Comedy",4.0000,1,4.0000
26649,"Adventure_Drama_Western",3.7500,2,7.5000
26662,"Adventure_Animation_Children_Drama_Fantasy",4.0588,17,69.0000
26676,"Comedy",2.5000,1,2.5000
26680,"Comedy_Musical_Romance",3.8000,5,19.0000
26681,"Action_Drama_War",4.0000,2,8.0000
26686,"Comedy_Fantasy",1.5000,3,4.5000
26693,"Drama_Fantasy_Horror_Mystery_Thriller",4.0000,1,4.0000
26694,"Drama",3.5000,1,3.5000
26695,"Drama",3.5000,1,3.5000
26696,"Action",0.5000,1,0.5000
26700,"Comedy_Crime",2.2500,2,4.5000
26701,"Action_Animation_Crime_Drama_Film-Noir_Mystery_Sci-Fi_Thriller",3.0000,1,3.0000
26704,"Crime_Drama_Thriller",4.0000,2,8.0000
26712,"Documentary",4.0000,3,12.0000
26713,"Drama_Romance",4.5000,1,4.5000
26717,"Drama_Horror",0.5000,1,0.5000
26726,"Comedy",2.5000,1,2.5000
26729,"Documentary",3.8000,5,19.0000
26732,"Comedy",4.0000,1,4.0000
26736,"Action_Crime_Thriller",4.5000,1,4.5000
26741,"Comedy_Fantasy_Romance",1.5000,1,1.5000
26743,"Animation_Drama",2.5000,1,2.5000
26745,"Comedy_Drama_Romance",2.5000,1,2.5000
26750,"Adventure_Drama_Western",3.2500,2,6.5000
26761,"Crime_Drama_Mystery_Romance_Thriller",3.0000,1,3.0000
26764,"Action_Fantasy_Sci-Fi_Thriller_War",1.2500,2,2.5000
26765,"Action_Comedy_Romance",2.7500,2,5.5000
26776,"Adventure_Animation_Comedy_Fantasy_Romance",3.8929,14,54.5000
26777,"Drama",4.0000,1,4.0000
26778,"Comedy",3.0000,3,9.0000
26782,"Drama_Musical",2.0000,1,2.0000
26791,"Drama_Romance_Thriller_War",1.5000,1,1.5000
26792,"Action_Adventure_Children_Comedy",1.5000,2,3.0000
26796,"Drama_Romance",3.5000,1,3.5000
26797,"Documentary",3.0000,1,3.0000
26810,"Drama",4.8333,3,14.5000
26812,"Drama",2.7500,2,5.5000
26819,"Action_Sci-Fi",2.5000,1,2.5000
26828,"Action_Children_Comedy",1.5000,1,1.5000
26838,"Comedy_Drama",3.0000,1,3.0000
26840,"Action_Comedy_Crime_Drama",5.0000,1,5.0000
26849,"Adventure_Drama_Fantasy_Horror_Sci-Fi",5.0000,1,5.0000
26854,"Action_Crime_Horror",2.5000,1,2.5000
26861,"Comedy_Sci-Fi",3.5000,1,3.5000
26865,"Action_Drama",3.3750,4,13.5000
26870,"Comedy",2.6667,3,8.0000
26871,"Comedy_Romance",2.2500,2,4.5000
26875,"Crime_Film-Noir_Mystery_Thriller",4.0000,1,4.0000
26887,"Drama_Fantasy_Horror_Mystery_Sci-Fi_Thriller",3.0000,1,3.0000
26900,"Comedy_Drama",3.0000,1,3.0000
26901,"Adventure_Western",2.5000,1,2.5000
26903,"Animation_Drama_Romance",3.8000,5,19.0000
26913,"Action_Animation",1.5000,1,1.5000
26928,"Comedy_Drama_Romance",5.0000,1,5.0000
26940,"Comedy",2.5000,1,2.5000
26947,"Crime_Thriller",2.5000,1,2.5000
26958,"Romance",3.5000,1,3.5000
26965,"Drama_Thriller",3.5000,2,7.0000
26974,"Drama",3.1667,3,9.5000
26985,"Action_Sci-Fi",4.5000,1,4.5000
26999,"Adventure_Animation_Children_Musical_Romance",3.0000,2,6.0000
27002,"Action_Documentary_Drama_Thriller",3.5000,1,3.5000
27003,"Action_Horror_Sci-Fi",3.0000,1,3.0000
27006,"Drama",3.5000,1,3.5000
27008,"Comedy_Crime_Horror",1.0000,1,1.0000
27020,"Drama_Romance",3.4000,5,17.0000
27022,"Action_Crime_Thriller",4.0000,1,4.0000
27032,"Action_Adventure_Comedy_Sci-Fi_Thriller",3.5000,2,7.0000
27036,"Action_Adventure_Drama_Fantasy_Romance",3.0000,1,3.0000
27074,"Sci-Fi",1.5000,1,1.5000
27075,"Children_Comedy_Fantasy",3.0000,1,3.0000
27105,"Fantasy_Western",2.5000,1,2.5000
27124,"Drama_Thriller",2.0000,1,2.0000
27134,"Action_Crime_Fantasy",4.0000,1,4.0000
27140,"Horror",3.0000,1,3.0000
27155,"Action_Adventure_Animation_Children_Fantasy_Sci-Fi",2.0000,1,2.0000
27156,"Action_Animation_Drama_Fantasy_Sci-Fi",4.3000,5,21.5000
27176,"Documentary",4.5000,1,4.5000
27178,"Comedy_Romance",4.0000,1,4.0000
27186,"Adventure_Animation_Children_Fantasy",4.0000,2,8.0000
27193,"Action_Comedy",3.8750,4,15.5000
27246,"Drama_Romance",4.0000,1,4.0000
27251,"Adventure_Comedy_Fantasy",2.7500,2,5.5000
27255,"Drama",3.5000,1,3.5000
27266,"Drama_Fantasy_Romance_Sci-Fi",4.0714,7,28.5000
27306,"Comedy_Drama",1.5000,1,1.5000
27311,"Action_Animation_Crime_Sci-Fi_Thriller",3.5000,3,10.5000
27317,"Drama_Horror_Mystery_Romance_Thriller",3.7500,6,22.5000
27320,"Comedy_Drama_Fantasy",5.0000,1,5.0000
27328,"Action_Comedy_Crime_Fantasy_Thriller",4.5000,1,4.5000
27329,"Documentary",4.0000,1,4.0000
27368,"Adventure_Comedy_Fantasy",4.0000,3,12.0000
27369,"Animation_Comedy",4.0000,1,4.0000
27370,"Comedy",4.5000,1,4.5000
27373,"Drama",5.0000,1,5.0000
27397,"Crime_Drama_Mystery_Thriller_War",4.2500,4,17.0000
27408,"Drama_Thriller",3.3333,3,10.0000
27416,"Comedy_Drama_Romance",3.7500,2,7.5000
27420,"Comedy_Drama_Romance_Sci-Fi",2.0000,1,2.0000
27426,"Action_Comedy_Thriller",2.5000,1,2.5000
27434,"Horror_Mystery",1.5000,3,4.5000
27441,"Action_Animation_Horror",3.2500,2,6.5000
27450,"Adventure_Western",2.5000,1,2.5000
27473,"Comedy_Crime_Horror_Mystery_Thriller",2.5000,1,2.5000
27478,"Comedy",3.0000,3,9.0000
27480,"Action_Crime_Thriller",4.5000,1,4.5000
27482,"Horror_Mystery_Sci-Fi",3.7500,2,7.5000
27491,"Horror_Mystery_Thriller",3.0000,1,3.0000
27513,"Drama",3.0000,1,3.0000
27523,"Comedy_Romance",5.0000,1,5.0000
27537,"Comedy_Fantasy_Mystery_Sci-Fi",3.5000,1,3.5000
27539,"Comedy_Romance",2.5000,1,2.5000
27549,"Comedy_Crime_Drama_Sci-Fi_Thriller",1.5000,1,1.5000
27555,"Comedy",3.7500,2,7.5000
27563,"Comedy_Horror_Musical",4.3333,3,13.0000
27584,"Comedy_Horror_Mystery_Thriller",3.5000,2,7.0000
27592,"Crime_Drama",3.8000,5,19.0000
27595,"Action_Comedy_Horror_Musical",0.5000,1,0.5000
27604,"Horror_Mystery_Thriller",3.1250,4,12.5000
27611,"Drama_Sci-Fi_War",3.8158,19,72.5000
27618,"Action_Adventure_Drama_Sci-Fi_Thriller",2.7500,2,5.5000
27619,"Adventure_Animation_Children_Comedy",4.5000,2,9.0000
27627,"Drama_Romance",4.5000,1,4.5000
27644,"Comedy_Drama_Romance",3.5000,1,3.5000
27660,"Action_Animation_Drama_Sci-Fi",3.7000,20,74.0000
27664,"Drama",3.2500,2,6.5000
27667,"Horror",3.0000,1,3.0000
27674,"Comedy_Crime_Drama_Mystery_Thriller",3.7500,4,15.0000
27683,"Action_Comedy_Horror_Sci-Fi_Thriller_Western",2.0000,1,2.0000
27685,"Comedy",1.7500,2,3.5000
27689,"Action_Crime_Thriller",2.5000,1,2.5000
27692,"Action_Comedy_Drama_War",3.5000,1,3.5000
27695,"Action_Comedy_Drama",3.0000,1,3.0000
27704,"Action_Drama_Thriller_War",5.0000,1,5.0000
27705,"Action_Drama_Thriller",1.5000,1,1.5000
27706,"Adventure_Children_Comedy_Fantasy",3.1600,25,79.0000
27708,"Action_Adventure_Drama_Romance",4.0000,1,4.0000
27716,"Comedy_Crime_Drama_Romance",4.5000,1,4.5000
27721,"Drama_Mystery_Romance_War",3.6667,6,22.0000
27722,"Drama_Romance",4.1667,3,12.5000
27728,"Action_Animation_Drama_Sci-Fi_Thriller",2.1667,3,6.5000
27731,"Adventure_Animation_Children_Fantasy",3.7500,8,30.0000
27741,"Drama_Romance",3.8333,6,23.0000
27744,"Drama_Romance",4.5000,1,4.5000
27746,"Horror_Thriller",3.0000,1,3.0000
27751,"Drama_Horror_Mystery_Thriller",5.0000,1,5.0000
27762,"Comedy",2.5000,1,2.5000
27768,"Drama",3.7500,2,7.5000
27769,"Drama",3.0000,1,3.0000
27772,"Horror",2.5833,6,15.5000
27773,"Mystery_Thriller",4.0897,39,159.5000
27776,"Drama",4.5000,1,4.5000
27778,"Fantasy_Horror",3.0000,1,3.0000
27784,"Horror_Mystery",1.5000,1,1.5000
27788,"Drama_Mystery_Sci-Fi_Thriller",3.0000,8,24.0000
27790,"Children_Comedy_Crime_Drama_Fantasy",3.5000,4,14.0000
27793,"Action_Horror_Sci-Fi_War",1.5000,2,3.0000
27801,"Action_Thriller",4.0000,12,48.0000
27802,"Action_Crime_Drama_Thriller",3.0000,1,3.0000
27803,"Drama",4.0000,8,32.0000
27808,"Comedy_Drama_Romance",3.3636,11,37.0000
27815,"Drama",3.9091,11,43.0000
27816,"Action_Adventure_Drama_War",2.5000,1,2.5000
27820,"Documentary_Drama",4.0000,2,8.0000
27821,"Drama_Thriller",3.2500,6,19.5000
27822,"Drama_Thriller",2.7000,5,13.5000
27826,"Comedy_Drama_Romance",4.0000,1,4.0000
27829,"Documentary",3.5000,1,3.5000
27830,"Drama",2.5000,1,2.5000
27831,"Crime_Drama_Thriller",3.8158,19,72.5000
27834,"Drama",4.3333,3,13.0000
27837,"Action_Adventure",2.8750,4,11.5000
27838,"Drama_Thriller",3.7500,2,7.5000
27839,"Drama_Horror_Mystery_Thriller",2.3000,5,11.5000
27846,"Documentary",3.9000,10,39.0000
27850,"Documentary",3.7500,2,7.5000
27865,"Action_Adventure_Drama_Thriller",2.7500,2,5.5000
27866,"Drama",3.5000,1,3.5000
27869,"Action_Drama_War",4.5000,1,4.5000
27873,"Documentary",3.1667,3,9.5000
27878,"Documentary",3.8750,4,15.5000
27879,"Documentary",4.1250,4,16.5000
27882,"Documentary",4.0000,4,16.0000
27899,"Comedy_Documentary_Drama",2.7500,2,5.5000
27904,"Animation_Drama_Mystery_Sci-Fi_Thriller",3.6136,22,79.5000
27905,"Action_Drama_Fantasy_Sci-Fi",3.5000,1,3.5000
27912,"Documentary",3.3000,5,16.5000
30707,"Drama",3.8462,52,200.0000
30745,"Comedy_Crime_Drama_Horror_Mystery",4.7500,2,9.5000
30749,"Drama_War",3.7917,48,182.0000
30793,"Adventure_Children_Comedy_Fantasy_IMAX",3.0000,61,183.0000
30803,"Drama_Romance",4.5000,3,13.5000
30810,"Adventure_Comedy_Fantasy",3.4865,37,129.0000
30812,"Drama",3.5286,35,123.5000
30816,"Drama_Musical_Romance",3.1667,12,38.0000
30818,"Drama_Musical",2.0000,1,2.0000
30820,"Drama",3.8333,3,11.5000
30822,"Comedy_Drama",3.4545,11,38.0000
30825,"Comedy",3.1061,33,102.5000
30846,"Crime_Drama_Thriller",3.5000,2,7.0000
30848,"Drama",3.1667,3,9.5000
30850,"Drama",3.7500,4,15.0000
30883,"Comedy_Fantasy",1.5000,2,3.0000
30890,"Drama",3.0000,1,3.0000
30894,"Drama_Horror_Mystery_Sci-Fi_Thriller",2.5000,8,20.0000
30898,"Comedy_Drama_Romance",3.1667,3,9.5000
30994,"Comedy_Drama",4.0000,1,4.0000
31000,"Comedy",2.5000,1,2.5000
31030,"Children_Drama",4.0000,1,4.0000
31038,"Drama_Romance",4.0000,1,4.0000
31049,"Comedy_Thriller",2.5000,1,2.5000
31083,"Comedy_Romance",2.0000,1,2.0000
31086,"Crime_Drama",3.5000,1,3.5000
31101,"Action_Crime_Drama",3.5000,2,7.0000
31114,"Comedy_Drama",3.0000,2,6.0000
31116,"Drama_War",3.8333,3,11.5000
31123,"Comedy_Crime",2.5000,1,2.5000
31150,"Animation_Fantasy_Sci-Fi_War",2.0000,1,2.0000
31162,"Comedy_Drama",3.0000,1,3.0000
31184,"Action_Animation_Fantasy_Sci-Fi",3.8333,3,11.5000
31193,"Animation_Children_Musical",3.5000,1,3.5000
31221,"Action_Adventure_Crime_Drama",2.0500,10,20.5000
31223,"Children_Comedy",2.0000,1,2.0000
31225,"Drama",3.0714,7,21.5000
31260,"Drama",3.5000,1,3.5000
31297,"Comedy_Musical",3.5000,1,3.5000
31309,"Crime_Drama",3.5000,1,3.5000
31364,"Crime_Drama_Mystery_Thriller",4.7000,5,23.5000
31367,"Action_Adventure_Comedy_Crime_Romance_Thriller",2.0000,1,2.0000
31410,"Drama_War",3.8750,20,77.5000
31420,"Action_Crime_Drama_Thriller",3.1875,8,25.5000
31422,"Children_Comedy",0.5000,1,0.5000
31424,"Action_Horror_Sci-Fi_Thriller",0.5000,1,0.5000
31427,"Horror_Mystery_Thriller",2.3333,6,14.0000
31431,"Drama_Horror_Mystery_Thriller",2.0000,2,4.0000
31433,"Comedy_Romance",3.1364,11,34.5000
31435,"Drama",4.5000,1,4.5000
31437,"Drama",4.2500,2,8.5000
31445,"Comedy_Drama",2.2500,2,4.5000
31522,"Drama",5.0000,1,5.0000
31545,"Crime_Film-Noir",4.0000,1,4.0000
31553,"Action_Adventure_Sci-Fi",1.0000,1,1.0000
31590,"Crime_Drama_Thriller",3.0000,1,3.0000
31610,"Drama",4.0000,1,4.0000
31617,"Action_Adventure_Drama_Romance_War",3.0000,1,3.0000
31658,"Adventure_Animation_Fantasy_Romance",4.0750,40,163.0000
31660,"Action_Animation_Drama_Sci-Fi",3.0000,2,6.0000
31664,"Action_Comedy_Romance",3.5000,1,3.5000
31685,"Comedy_Romance",3.1667,45,142.5000
31692,"Comedy",0.5000,1,0.5000
31694,"Comedy_Musical_Romance",3.2500,2,6.5000
31696,"Action_Fantasy_Horror_Thriller",3.4714,35,121.5000
31698,"Adventure_Children_Comedy_Fantasy",1.0000,1,1.0000
31700,"Children_Comedy_Drama",3.1667,3,9.5000
31702,"Drama_War",4.0000,1,4.0000
31737,"Mystery_Thriller",3.5000,1,3.5000
31804,"Action_Fantasy_Horror_Mystery_Sci-Fi_Thriller",3.2500,4,13.0000
31851,"Comedy",3.0000,1,3.0000
31867,"Action_Comedy",3.0000,1,3.0000
31878,"Action_Comedy",3.5789,19,68.0000
31903,"Drama_Romance",4.0000,1,4.0000
31909,"Comedy_Horror",4.0000,1,4.0000
31921,"Adventure_Comedy_Crime_Drama_Mystery_Thriller",2.5000,1,2.5000
31923,"Action_Adventure_Comedy",4.0000,3,12.0000
31925,"Adventure_Comedy_Romance",4.0000,1,4.0000
31952,"Comedy_Crime_Drama_Mystery",3.5000,1,3.5000
31973,"Drama_War",3.5000,1,3.5000
32009,"Comedy_Drama_Romance",2.6667,3,8.0000
32011,"Horror_Thriller",2.1667,6,13.0000
32017,"Action_Comedy",2.7143,7,19.0000
32019,"Comedy_Crime_Musical",2.4375,8,19.5000
32022,"Documentary_War",3.6667,3,11.0000
32029,"Action_Crime_Drama_Thriller",3.0500,10,30.5000
32031,"Adventure_Animation_Children_Comedy_Fantasy_Sci-Fi_IMAX",3.0263,19,57.5000
32058,"Drama",2.0000,1,2.0000
32060,"Horror_Mystery",3.0000,1,3.0000
32116,"Comedy",2.5000,1,2.5000
32139,"Drama",4.0000,1,4.0000
32179,"Crime_Drama_Thriller",4.0000,1,4.0000
32213,"Horror_Mystery_Sci-Fi_Thriller",2.6667,3,8.0000
32234,"Drama",4.0000,1,4.0000
32243,"Action_Comedy_Crime",3.5000,1,3.5000
32289,"Children_Comedy_Drama",3.3750,4,13.5000
32291,"Comedy_Drama",3.1000,5,15.5000
32294,"Drama",3.5000,1,3.5000
32296,"Adventure_Comedy_Crime",2.2500,8,18.0000
32298,"Comedy_Romance",2.3333,3,7.0000
32300,"Action_Comedy",2.8333,3,8.5000
32302,"Documentary",4.0000,1,4.0000
32314,"Adventure_Comedy_Documentary",3.5000,1,3.5000
32387,"Action_Drama",4.2500,2,8.5000
32392,"Comedy_Crime_Drama_Western",2.5000,1,2.5000
32440,"Action_Comedy",2.0000,1,2.0000
32442,"Comedy",2.5000,1,2.5000
32456,"Animation_Comedy_Drama_Fantasy",4.2500,2,8.5000
32460,"Action_Comedy_Crime_Drama",4.2500,4,17.0000
32469,"Comedy_Crime_Drama",4.5000,1,4.5000
32511,"Action_Adventure",4.5000,1,4.5000
32515,"Adventure_Drama_War_Western",2.5000,1,2.5000
32554,"Animation_Fantasy_Sci-Fi_Thriller",3.8333,3,11.5000
32582,"Documentary",4.7500,2,9.5000
32584,"Drama",3.1250,4,12.5000
32587,"Action_Crime_Film-Noir_Mystery_Thriller",3.8571,84,324.0000
32589,"Comedy",2.0000,1,2.0000
32596,"Action_Adventure_Comedy",3.0714,7,21.5000
32598,"Comedy_Romance",2.9375,8,23.5000
32600,"Drama",3.5000,1,3.5000
32620,"Comedy_Musical_Romance",3.5000,1,3.5000
32632,"Action_Crime",3.5000,1,3.5000
32649,"Drama_War",4.0000,1,4.0000
32657,"Animation_Drama",4.2500,4,17.0000
32659,"Comedy",2.5000,1,2.5000
32666,"Comedy",1.0000,1,1.0000
32728,"Drama_Mystery_Thriller",4.0000,1,4.0000
32743,"Drama_Horror_Thriller",3.0000,1,3.0000
32770,"Drama",4.2500,2,8.5000
32799,"Drama_Romance",3.5000,1,3.5000
32862,"Comedy_Romance",4.0000,1,4.0000
32875,"Comedy",3.0000,1,3.0000
32892,"Drama_War",2.7500,2,5.5000
32898,"Action_Adventure_Fantasy_Sci-Fi",3.5000,5,17.5000
32906,"Drama_War",3.5000,1,3.5000
32914,"Drama_Horror_Thriller",3.0000,1,3.0000
32917,"Comedy_Fantasy_Romance",4.0000,1,4.0000
33004,"Adventure_Comedy_Sci-Fi",3.4205,44,150.5000
33085,"Horror_Thriller",2.2500,6,13.5000
33090,"Animation_Comedy_Sci-Fi",4.0000,2,8.0000
33124,"Drama_War",3.5000,1,3.5000
33126,"Comedy_Western",2.5000,1,2.5000
33132,"Action_Crime_Drama",1.5000,1,1.5000
33138,"Adventure_Comedy_Drama",5.0000,1,5.0000
33145,"Comedy_Drama_Romance",3.0000,6,18.0000
33148,"Comedy_Crime",2.5000,1,2.5000
33154,"Documentary",4.0000,6,24.0000
33158,"Action_Crime_Thriller",2.0000,5,10.0000
33162,"Action_Drama_Romance_War",3.5000,17,59.5000
33164,"Horror_Thriller",1.8333,6,11.0000
33166,"Crime_Drama",3.8900,50,194.5000
33171,"Drama_Mystery",2.0000,2,4.0000
33188,"Comedy_Romance",2.5000,1,2.5000
33201,"Drama_Mystery_Romance_Thriller",4.5000,1,4.5000
33237,"Drama_Musical_Romance",4.0000,1,4.0000
33294,"Animation_Fantasy_Horror",2.5000,1,2.5000
33310,"Drama_Romance",4.5000,1,4.5000
33312,"Comedy_Musical",3.5000,1,3.5000
33421,"Drama",3.6667,3,11.0000
33435,"Documentary",3.5000,1,3.5000
33437,"Action_Crime_Drama_Thriller",3.4444,9,31.0000
33493,"Action_Adventure_Sci-Fi",3.4295,78,267.5000
33495,"Comedy",2.6429,7,18.5000
33499,"Comedy_Romance",2.5000,4,10.0000
33558,"Adventure_Drama",3.0000,1,3.0000
33564,"Comedy",4.5000,2,9.0000
33615,"Adventure_Animation_Children_Comedy",3.3750,40,135.0000
33629,"Adventure_Comedy",2.5000,1,2.5000
33639,"Children_Documentary",3.3333,3,10.0000
33644,"Horror_Thriller",2.5000,1,2.5000
33646,"Comedy_Drama",3.1111,9,28.0000
33649,"Comedy_Drama_Romance",5.0000,1,5.0000
33660,"Drama_Romance",4.0882,17,69.5000
33669,"Adventure_Comedy_Drama",3.0714,7,21.5000
33672,"Action_Comedy_Drama",3.0000,7,21.0000
33677,"Documentary",3.5000,3,10.5000
33679,"Action_Adventure_Comedy_Romance",3.2797,59,193.5000
33681,"Action_Adventure_Children_Fantasy",1.7500,2,3.5000
33683,"Horror_Thriller",3.7500,2,7.5000
33725,"Comedy_Drama_Musical",3.1667,3,9.5000
33779,"Comedy",4.5000,2,9.0000
33781,"Drama_Romance",3.0000,2,6.0000
33794,"Action_Crime_IMAX",3.8621,116,448.0000
33801,"Action_Adventure_Fantasy_Sci-Fi",3.0000,1,3.0000
33815,"Comedy_Drama_Romance",3.0000,2,6.0000
33826,"Comedy_Drama",2.5000,1,2.5000
33830,"Adventure_Comedy_Romance",3.1667,3,9.5000
33834,"Action_Horror_Thriller",3.1250,4,12.5000
33836,"Comedy_Fantasy_Romance",2.2692,13,29.5000
33838,"Documentary",3.5000,1,3.5000
33880,"Comedy_Drama",3.7500,4,15.0000
33893,"Comedy_Crime_Thriller",4.5000,1,4.5000
33896,"Horror",3.3333,3,10.0000
33903,"Comedy_Crime_Drama_Romance",4.0000,5,20.0000
33966,"Comedy",1.5000,1,1.5000
34018,"Comedy_Musical",3.0000,1,3.0000
34048,"Action_Adventure_Sci-Fi_Thriller",3.1500,50,157.5000
34072,"Documentary",3.5556,18,64.0000
34129,"Comedy",3.0000,1,3.0000
34143,"Drama_Horror_Thriller",2.0000,3,6.0000
34148,"Drama",3.0000,2,6.0000
34150,"Action_Adventure_Sci-Fi",2.7639,36,99.5000
34153,"Documentary",3.8333,3,11.5000
34162,"Comedy_Romance",3.5086,58,203.5000
34164,"Comedy_Drama",3.5000,1,3.5000
34271,"Crime_Drama",3.7500,4,15.0000
34292,"Action_Horror_Sci-Fi",1.5000,1,1.5000
34312,"Comedy",5.0000,1,5.0000
34319,"Action_Sci-Fi_Thriller",3.3548,31,104.0000
34321,"Children_Comedy",3.0000,3,9.0000
34323,"Action_Crime_Horror",3.7143,7,26.0000
34326,"Drama",3.0000,2,6.0000
34330,"Drama_Mystery",3.0000,1,3.0000
34332,"Action_Adventure_Children_Comedy",2.9167,6,17.5000
34334,"Action_Adventure_Sci-Fi_Thriller",2.5000,5,12.5000
34336,"Comedy_Romance",2.0000,4,8.0000
34338,"Comedy_Documentary",3.3500,10,33.5000
34359,"Comedy",4.0000,1,4.0000
34397,"Action_Adventure_Drama_Thriller",3.0000,1,3.0000
34405,"Action_Adventure_Sci-Fi",3.9400,50,197.0000
34437,"Comedy_Drama",3.4762,21,73.0000
34450,"Action_Comedy_Crime_Drama",4.5000,1,4.5000
34520,"Action_Adventure_Comedy",2.0833,12,25.0000
34523,"Comedy_Drama",2.0000,3,6.0000
34528,"Comedy_Drama",3.6667,3,11.0000
34530,"Comedy",2.8333,3,8.5000
34532,"Drama_Horror_Mystery_Thriller",3.0000,4,12.0000
34534,"Action_Crime_Drama",3.5714,7,25.0000
34536,"Action_Drama_War",3.1667,3,9.5000
34540,"Comedy_Drama",3.0000,1,3.0000
34542,"Documentary",3.7000,5,18.5000
34800,"Comedy",1.5000,1,1.5000
34811,"Action_Crime_Drama_Thriller",2.5000,1,2.5000
35015,"Adventure_Drama",3.5000,1,3.5000
35347,"Animation_Drama",1.0000,1,1.0000
35807,"Comedy",4.0000,1,4.0000
35836,"Comedy_Romance",3.5473,74,262.5000
35957,"Horror_Thriller",3.3889,9,30.5000
36276,"Drama_Mystery_Thriller",2.5000,2,5.0000
36289,"Adventure_Children_Comedy_Fantasy",4.0000,1,4.0000
36363,"Comedy_Drama_Sci-Fi",3.7500,2,7.5000
36397,"Adventure_Animation_Children_Comedy_Fantasy_War",1.5000,1,1.5000
36401,"Comedy_Fantasy_Horror_Thriller",2.6250,20,52.5000
36477,"Comedy_Drama_Romance",4.0000,1,4.0000
36509,"Action_Adventure_Horror_Mystery_Sci-Fi_Thriller",2.6667,3,8.0000
36517,"Drama_Thriller",3.4615,13,45.0000
36519,"Action_Crime_Thriller",3.2188,16,51.5000
36525,"Comedy_Fantasy_Romance",2.6875,8,21.5000
36527,"Drama",3.5714,7,25.0000
36529,"Action_Crime_Drama_Thriller_War",3.7143,35,130.0000
36533,"Drama_Horror_Mystery_Thriller",2.2500,2,4.5000
36535,"Comedy_Drama",3.7778,9,34.0000
36537,"Comedy_Drama",3.3333,3,10.0000
36708,"Adventure_Animation_Comedy",3.7083,12,44.5000
36850,"Action_Comedy_Crime_Thriller",3.7500,2,7.5000
36931,"Action_Crime_Drama",3.5000,1,3.5000
37211,"Comedy_Musical_Western",3.0000,1,3.0000
37240,"Documentary",3.5000,4,14.0000
37380,"Action_Horror_Sci-Fi",2.1500,10,21.5000
37382,"Crime_Drama_Thriller",2.8750,8,23.0000
37384,"Comedy",3.2692,13,42.5000
37386,"Action_Sci-Fi",2.7619,21,58.0000
37444,"Comedy_Horror_Romance",4.0000,1,4.0000
37475,"Drama",3.0000,1,3.0000
37477,"Action_Comedy_Crime",2.5000,1,2.5000
37495,"Fantasy_Mystery_Romance_Thriller",3.5000,1,3.5000
37545,"Drama",3.2500,2,6.5000
37720,"Crime_Drama_Horror_Thriller",2.9167,6,17.5000
37727,"Action_Drama_Thriller",2.8636,11,31.5000
37729,"Animation_Comedy_Fantasy_Musical_Romance",3.5341,44,155.5000
37731,"Crime_Drama",3.7222,9,33.5000
37733,"Action_Crime_Drama_Thriller",3.5000,27,94.5000
37736,"Drama",3.5000,3,10.5000
37739,"Drama",3.3000,5,16.5000
37741,"Crime_Drama",3.8696,23,89.0000
37830,"Action_Adventure_Animation_Fantasy_Sci-Fi",3.5500,10,35.5000
37844,"Comedy_Drama_Romance",2.0000,1,2.0000
37853,"Action_Adventure_Crime_Thriller",2.5000,2,5.0000
37857,"Adventure_Children_Drama_Fantasy",3.6111,9,32.5000
38038,"Adventure_Animation_Children_Comedy",3.6333,30,109.0000
38061,"Comedy_Crime_Mystery_Thriller",4.0714,35,142.5000
38095,"Action_Crime_Drama",4.1667,3,12.5000
38159,"Drama_Romance",4.5000,1,4.5000
38164,"Drama_Romance",4.0000,1,4.0000
38198,"Documentary",4.0000,1,4.0000
38294,"Action_Adventure_Drama_Fantasy",2.5000,1,2.5000
38304,"Documentary",4.6250,4,18.5000
38388,"Drama",4.2500,2,8.5000
38583,"Action_Horror_Sci-Fi_Thriller",2.5000,1,2.5000
38798,"Comedy_Drama",3.1250,4,12.5000
38886,"Comedy_Drama",3.4444,9,31.0000
38992,"Drama",3.5000,1,3.5000
39183,"Drama_Romance",3.5588,34,121.0000
39231,"Comedy_Drama_Romance",3.5000,4,14.0000
39234,"Drama",3.5000,4,14.0000
39292,"Crime_Drama",3.7750,20,75.5000
39307,"Children_Drama",2.5000,1,2.5000
39381,"Crime_Drama_Western",3.5625,8,28.5000
39400,"Action_Horror_Mystery_Thriller",2.1000,5,10.5000
39414,"Comedy_Drama_Romance",3.0000,7,21.0000
39427,"Thriller",3.0000,4,12.0000
39435,"Action_Adventure_Drama_Western",2.9000,5,14.5000
39444,"Comedy_Drama",3.3889,9,30.5000
39446,"Horror_Thriller",2.8077,13,36.5000
39449,"Comedy_Drama_Romance",2.6000,5,13.0000
39516,"Drama",4.5000,1,4.5000
39715,"Comedy",2.1429,7,15.0000
39801,"Adventure_Comedy_Fantasy_Horror",2.7500,2,5.5000
39869,"Drama",4.1250,4,16.5000
40148,"Crime_Drama_Thriller",3.3571,7,23.5000
40278,"Action_Drama_War",3.6765,17,62.5000
40339,"Action_Adventure_Animation_Children_Comedy_Sci-Fi",2.2857,7,16.0000
40412,"Crime_Thriller",4.7500,2,9.5000
40414,"Drama_War",3.7000,5,18.5000
40478,"Horror_Sci-Fi_Thriller",2.5000,1,2.5000
40491,"Comedy_Drama",5.0000,1,5.0000
40578,"Action_Drama",3.0000,1,3.0000
40581,"Comedy_Romance",2.9167,6,17.5000
40583,"Drama_Thriller",3.5312,16,56.5000
40597,"Comedy_Drama",2.0000,1,2.0000
40614,"Drama_Thriller",3.2500,4,13.0000
40617,"Horror_Thriller",3.0000,1,3.0000
40629,"Drama_Romance",3.5556,27,96.0000
40697,"Sci-Fi",2.2500,2,4.5000
40723,"Crime_Horror_Thriller",3.2500,4,13.0000
40732,"Adventure_Drama_Horror_Thriller",3.5455,11,39.0000
40815,"Adventure_Fantasy_Thriller_IMAX",3.8169,71,271.0000
40819,"Drama_Musical_Romance",3.7564,39,146.5000
40826,"Drama_Musical_Romance",3.1500,10,31.5000
40851,"Action_Adventure_Children_Fantasy",3.3750,4,13.5000
40870,"Drama",3.5000,2,7.0000
40946,"Comedy_Musical",2.0000,2,4.0000
40955,"Comedy_Drama",3.8750,4,15.5000
40959,"Action_Comedy_Crime_Thriller",3.6667,3,11.0000
40962,"Comedy_Romance",3.3333,3,10.0000
40966,"Drama",3.5000,1,3.5000
41014,"Crime_Horror_Mystery_Thriller",4.0000,1,4.0000
41285,"Crime_Drama_Romance",3.4412,17,58.5000
41527,"Crime_Drama_Thriller_War",4.0000,2,8.0000
41566,"Adventure_Children_Fantasy",3.4435,62,213.5000
41569,"Action_Adventure_Drama_Fantasy_Thriller",3.4000,40,136.0000
41571,"Drama_Romance",3.5833,12,43.0000
41573,"Comedy_Drama_Romance",2.8750,8,23.0000
41617,"Crime_Drama_Romance",2.7500,2,5.5000
41627,"Action_Drama",3.5000,1,3.5000
41712,"Comedy_Drama",4.0000,1,4.0000
41716,"Comedy_Drama_Thriller",3.2143,7,22.5000
41724,"Documentary",4.5000,1,4.5000
41769,"Comedy_Drama_Romance",2.5000,1,2.5000
41828,"Comedy_War",4.5000,1,4.5000
41863,"Adventure_Crime_Drama",4.0000,5,20.0000
41997,"Action_Crime_Drama_Thriller",3.8095,21,80.0000
42002,"Comedy_Musical",3.3889,9,30.5000
42004,"Adventure_Comedy_Drama",3.5000,6,21.0000
42007,"Comedy_Drama_Romance",2.8333,3,8.5000
42009,"Adventure_Comedy",1.8750,4,7.5000
42011,"Comedy_Crime",2.1818,11,24.0000
42013,"Comedy",2.7500,4,11.0000
42015,"Action_Adventure_Comedy_Drama_Romance",3.0000,3,9.0000
42018,"Comedy_Drama",2.0000,2,4.0000
42176,"Drama_Thriller",4.0000,1,4.0000
42191,"Animation_Children",3.7500,2,7.5000
42285,"Horror_Thriller",3.0000,1,3.0000
42418,"Adventure_Drama_Romance",3.2000,5,16.0000
42422,"Animation_Drama_Romance_Sci-Fi",4.5000,1,4.5000
42556,"Fantasy_Mystery_Western",5.0000,1,5.0000
42559,"Action_Adventure_Drama",3.0000,1,3.0000
42602,"Documentary",3.5000,1,3.5000
42632,"Crime_Drama_Mystery_Thriller",4.0000,5,20.0000
42638,"Comedy_Drama",2.5000,1,2.5000
42718,"Action_Crime_Sci-Fi",3.8000,5,19.0000
42723,"Horror",2.8636,11,31.5000
42725,"Comedy",2.5714,7,18.0000
42728,"Drama_Romance",3.6000,5,18.0000
42730,"Drama",3.7500,2,7.5000
42732,"Comedy",3.5000,3,10.5000
42734,"Animation_Children_Comedy",3.2500,4,13.0000
42738,"Action_Fantasy_Horror",3.0938,16,49.5000
42740,"Comedy",3.5000,1,3.5000
42761,"Adventure_Children_Comedy_Fantasy",4.5000,1,4.5000
42943,"Adventure_Drama_War",2.5000,1,2.5000
42946,"Action_Comedy",4.0000,2,8.0000
43289,"Adventure_Comedy_Drama_Fantasy",4.0000,1,4.0000
43333,"Drama_Romance",3.5000,1,3.5000
43376,"Drama_War",4.6250,4,18.5000
43396,"Drama",3.7857,7,26.5000
43419,"Action_Comedy_Crime_Western",1.0000,1,1.0000
43460,"Comedy_Drama",3.3333,3,10.0000
43549,"Action_Crime_Drama_Horror",3.5000,1,3.5000
43556,"Drama",2.7500,2,5.5000
43558,"Action_Comedy_Crime",2.0000,1,2.0000
43560,"Children_Comedy_Fantasy",3.1667,6,19.0000
43677,"Drama_War",2.0000,1,2.0000
43679,"Horror_Mystery_Thriller",2.8333,9,25.5000
43684,"Comedy_Drama_Romance",4.5000,1,4.5000
43708,"Comedy_Documentary",3.1667,3,9.5000
43744,"Comedy_Drama_Romance",3.5000,1,3.5000
43836,"Adventure_Comedy_Crime",2.8571,7,20.0000
43869,"Adventure_Animation_Children_Comedy",3.5000,2,7.0000
43871,"Crime_Drama_Thriller",2.7500,8,22.0000
43904,"Horror_Thriller",1.3000,5,6.5000
43908,"Drama",3.0000,1,3.0000
43912,"Crime_Drama",2.0000,1,2.0000
43914,"Drama",4.0000,1,4.0000
43917,"Action_Adventure_Drama_Romance",3.0000,4,12.0000
43919,"Comedy_Romance",0.8333,3,2.5000
43921,"Action_Crime_Thriller",3.3000,5,16.5000
43928,"Action_Fantasy_Sci-Fi_Thriller",1.9231,13,25.0000
43930,"Comedy_Romance",3.0000,1,3.0000
43932,"Action_Drama_Fantasy_Horror_Mystery_Sci-Fi_Thriller",1.7500,2,3.5000
43936,"Crime_Thriller",3.0000,9,27.0000
44004,"Comedy_Romance",3.2500,6,19.5000
44020,"Action_Animation_Children_Sci-Fi",2.7500,2,5.5000
44022,"Adventure_Animation_Children_Comedy",3.2174,23,74.0000
44189,"Drama_Romance",4.0000,1,4.0000
44191,"Action_Sci-Fi_Thriller_IMAX",3.8850,100,388.5000
44193,"Comedy_Romance",3.7500,6,22.5000
44195,"Comedy_Drama",4.0278,36,145.0000
44197,"Comedy_Crime_Drama",3.0000,1,3.0000
44199,"Crime_Drama_Thriller",3.8000,40,152.0000
44204,"Crime_Drama",3.2500,4,13.0000
44225,"Children_Comedy_Fantasy",2.0000,2,4.0000
44238,"Comedy_Fantasy_Horror",2.5000,1,2.5000
44241,"Comedy_Fantasy_Horror",2.0000,1,2.0000
44243,"Comedy_Fantasy_Horror_Sci-Fi",0.5000,1,0.5000
44301,"Crime_Drama",3.5000,1,3.5000
44397,"Drama_Horror_Thriller",3.0833,6,18.5000
44399,"Adventure_Children_Comedy_Fantasy",1.2500,2,2.5000
44511,"Documentary",3.5000,1,3.5000
44555,"Drama_Romance_Thriller",4.1176,34,140.0000
44597,"Action_Crime_Mystery",4.0000,1,4.0000
44613,"Drama",3.7500,2,7.5000
44633,"Documentary",4.5000,1,4.5000
44657,"Drama",3.0000,1,3.0000
44665,"Crime_Drama_Mystery",3.8553,38,146.5000
44694,"Comedy_Drama",3.8125,8,30.5000
44709,"Drama",3.8000,5,19.0000
44719,"Drama",2.5000,1,2.5000
44731,"Horror_Sci-Fi_Thriller",1.3333,3,4.0000
44759,"Crime_Drama_Mystery_Thriller",2.1667,3,6.5000
44761,"Crime_Drama_Film-Noir_Mystery",3.8750,12,46.5000
44773,"Comedy_Horror",3.0000,1,3.0000
44777,"Comedy_Horror_Sci-Fi",4.5000,1,4.5000
44788,"Documentary",3.5000,6,21.0000
44828,"Comedy_Horror_Sci-Fi",3.0000,5,15.0000
44840,"Comedy",2.7727,11,30.5000
44849,"Action_Animation_Film-Noir_Sci-Fi_Thriller",2.5000,1,2.5000
44851,"Comedy",5.0000,1,5.0000
44864,"Comedy_Drama_Romance",3.2500,4,13.0000
44889,"Comedy_Drama_Musical",4.7500,2,9.5000
44929,"Drama_Romance",4.2500,2,8.5000
44931,"Drama",4.5000,1,4.5000
44937,"Crime_Drama",4.0000,1,4.0000
44943,"Documentary",5.0000,1,5.0000
44972,"Comedy_Horror",2.2500,12,27.0000
44974,"Drama_Thriller",3.5000,12,42.0000
45028,"Comedy_Drama_Musical",3.6667,6,22.0000
45062,"Crime_Drama_Thriller",2.7500,2,5.5000
45074,"Adventure_Animation_Children_Comedy_Fantasy",2.5000,1,2.5000
45081,"Fantasy_Horror_Thriller",2.9583,12,35.5000
45106,"Comedy_Drama",3.0000,1,3.0000
45175,"Comedy_Drama",3.7500,4,15.0000
45183,"Action_Comedy_Crime_Thriller",3.0000,1,3.0000
45186,"Action_Adventure_Thriller",3.5893,28,100.5000
45208,"Adventure_Children_Comedy",2.0000,3,6.0000
45210,"Crime_Drama",4.1429,7,29.0000
45221,"Comedy",2.5833,6,15.5000
45361,"Drama_Horror_Mystery_Thriller",1.5000,2,3.0000
45382,"Drama_Romance",3.2500,2,6.5000
45431,"Adventure_Animation_Children_Comedy",3.4286,14,48.0000
45440,"Comedy_Drama",3.3333,6,20.0000
45442,"Action_Adventure_Thriller_IMAX",2.8750,4,11.5000
45447,"Drama_Mystery_Thriller",3.1224,49,153.0000
45499,"Action_Sci-Fi_Thriller",3.3558,52,174.5000
45501,"Comedy_Drama_Romance",2.5909,11,28.5000
45503,"Drama",5.0000,1,5.0000
45517,"Animation_Children_Comedy",3.3780,41,138.5000
45635,"Drama",3.0000,2,6.0000
45648,"Comedy_Drama",2.5000,1,2.5000
45658,"Drama",2.0000,1,2.0000
45662,"Horror_Thriller",2.3000,5,11.5000
45666,"Comedy",2.4643,14,34.5000
45668,"Drama_Fantasy_Romance",3.1000,10,31.0000
45672,"Adventure_Comedy_Drama_Fantasy_Romance",2.9783,23,68.5000
45720,"Comedy_Drama",3.5588,34,121.0000
45722,"Action_Adventure_Fantasy",3.5069,72,252.5000
45726,"Comedy",2.1667,6,13.0000
45728,"Comedy",3.8846,13,50.5000
45730,"Drama_Fantasy_Mystery",2.8333,9,25.5000
45732,"Comedy_Fantasy_Romance",1.5833,6,9.5000
45880,"Drama_Romance",3.1923,13,41.5000
45928,"Documentary",3.7000,5,18.5000
45950,"Documentary",3.5769,13,46.5000
45969,"Comedy_Romance",2.5000,1,2.5000
46062,"Children_Comedy_Drama_Musical_Romance",2.0000,3,6.0000
46105,"Comedy_Documentary_Romance",4.5000,1,4.5000
46231,"Drama",2.0000,1,2.0000
46322,"Action_Drama",3.1250,8,25.0000
46335,"Action_Crime_Drama_Thriller",2.0909,11,23.0000
46337,"Animation_Children_Comedy",2.2500,2,4.5000
46347,"Documentary",4.0000,2,8.0000
46367,"Crime_Thriller",2.0000,1,2.0000
46530,"Action_Adventure_Sci-Fi_IMAX",3.0800,25,77.0000
46559,"Drama_War",3.5000,1,3.5000
46572,"Drama_Thriller",3.5000,3,10.5000
46574,"Comedy",2.5000,1,2.5000
46578,"Adventure_Comedy_Drama",3.8831,77,299.0000
46664,"Drama_Mystery_Thriller",2.5000,1,2.5000
46723,"Drama_Thriller",3.5000,31,108.5000
46772,"Comedy",2.5000,1,2.5000
46850,"Documentary",4.0000,3,12.0000
46855,"Action_Drama_Thriller_War",4.5000,1,4.5000
46862,"Drama",3.5000,1,3.5000
46865,"Comedy",1.0000,1,1.0000
46948,"Animation_Children_Fantasy_Mystery",3.1111,9,28.0000
46965,"Action_Comedy_Horror_Thriller",2.6429,14,37.0000
46967,"Comedy_Fantasy_Mystery",3.3750,4,13.5000
46970,"Action_Comedy",3.2500,28,91.0000
46972,"Action_Comedy_Fantasy_IMAX",3.2391,23,74.5000
46974,"Drama",2.6667,6,16.0000
46976,"Comedy_Drama_Fantasy_Romance",3.6932,44,162.5000
47044,"Action_Crime_Drama_Thriller",2.7500,10,27.5000
47099,"Drama",3.7935,46,174.5000
47122,"Comedy_Romance",2.7222,9,24.5000
47124,"Adventure_Animation_Children_Comedy_Fantasy_IMAX",3.2500,2,6.5000
47200,"Action_Thriller",3.4286,14,48.0000
47202,"Drama_Romance",4.0000,1,4.0000
47254,"Action_Crime_Drama_Thriller",3.5000,1,3.5000
47261,"Fantasy_Mystery_Thriller",2.8333,3,8.5000
47382,"Drama_Romance",3.5000,4,14.0000
47384,"Adventure_Comedy_Drama_Fantasy",2.5000,1,2.5000
47404,"Adventure_Animation_Comedy_Fantasy_Romance_Sci-Fi",4.2500,2,8.5000
47423,"Drama",4.0000,5,20.0000
47446,"Drama_Mystery_Thriller",3.5000,1,3.5000
47465,"Drama_Fantasy_Thriller",3.0000,3,9.0000
47491,"Comedy_Drama",4.1667,3,12.5000
47516,"Children_Comedy_Drama",2.0000,1,2.0000
47518,"Comedy",2.9286,14,41.0000
47538,"Action_Adventure_Comedy_Crime",2.5000,1,2.5000
47566,"Crime_Drama_Film-Noir",4.0000,1,4.0000
47610,"Drama_Fantasy_Mystery_Romance",3.7791,43,162.5000
47629,"Drama",3.7308,13,48.5000
47640,"Comedy",3.5000,6,21.0000
47644,"Drama",3.0000,7,21.0000
47646,"Crime_Drama_Musical",4.0000,1,4.0000
47721,"Children_Fantasy",3.5000,1,3.5000
47725,"Comedy_Drama_Fantasy_Romance",3.5000,3,10.5000
47736,"Comedy",5.0000,1,5.0000
47774,"Comedy_Fantasy",3.0000,1,3.0000
47793,"Drama_Romance",2.5000,1,2.5000
47810,"Horror_Mystery_Thriller",1.0000,4,4.0000
47894,"Drama_War",3.7500,4,15.0000
47937,"Comedy_Horror_Thriller",3.0000,1,3.0000
47950,"Crime_Drama_Mystery_Thriller",3.2000,5,16.0000
47952,"Action_Horror_Thriller",3.0000,1,3.0000
47970,"Comedy_Drama",3.8333,3,11.5000
47978,"Drama",2.5000,1,2.5000
47997,"Adventure_Comedy_Sci-Fi_Thriller",3.7222,18,67.0000
47999,"Documentary_Drama",4.0714,7,28.5000
48001,"Drama_Romance",4.0000,1,4.0000
48032,"Comedy_Drama_Romance_War",4.0000,1,4.0000
48043,"Drama_Fantasy_Romance",3.5000,14,49.0000
48045,"Comedy",4.0000,1,4.0000
48082,"Comedy_Drama_Fantasy_Romance",3.8636,11,42.5000
48142,"Crime_Drama_Mystery_Thriller",3.2500,6,19.5000
48150,"Horror",3.0000,1,3.0000
48161,"Drama",3.0000,2,6.0000
48214,"Drama",3.5000,1,3.5000
48262,"Documentary",4.0000,1,4.0000
48304,"Adventure_Drama_Thriller",3.6053,19,68.5000
48319,"Action_Adventure_Drama_War",2.0000,1,2.0000
48322,"Comedy_Documentary",3.5714,7,25.0000
48326,"Drama",3.0000,3,9.0000
48342,"Comedy_Drama_Romance",4.0000,2,8.0000
48385,"Comedy",3.3462,65,217.5000
48394,"Drama_Fantasy_Thriller",3.8148,81,309.0000
48412,"Action_Adventure_Drama",3.0000,4,12.0000
48414,"Adventure_Animation_Children_Comedy_IMAX",3.0000,2,6.0000
48416,"Comedy_Crime",2.5000,1,2.5000
48516,"Crime_Drama_Thriller",4.2523,107,455.0000
48518,"Horror_Thriller",2.5000,2,5.0000
48520,"Comedy",2.8333,6,17.0000
48560,"Comedy_Drama",2.5000,1,2.5000
48593,"Comedy_Thriller",2.5000,3,7.5000
48596,"Action_Drama_Thriller",2.7500,2,5.5000
48598,"Drama",3.7500,2,7.5000
48638,"Drama_Romance",3.5000,2,7.0000
48649,"Drama_War",4.5000,1,4.5000
48678,"Action_Comedy_Horror_Thriller",2.7500,2,5.5000
48696,"Drama_Romance",3.8750,4,15.5000
48698,"Documentary",4.5000,2,9.0000
48738,"Drama_Thriller",3.9750,20,79.5000
48741,"Documentary",4.0000,1,4.0000
48744,"Comedy_Drama_Romance",4.0000,3,12.0000
48774,"Action_Adventure_Drama_Sci-Fi_Thriller",3.9453,64,252.5000
48780,"Drama_Mystery_Sci-Fi_Thriller",4.0056,90,360.5000
48783,"Drama_War",3.4545,11,38.0000
48872,"Film-Noir_Thriller",4.5000,1,4.5000
48877,"Crime_Horror_Thriller",3.0455,11,33.5000
48879,"Drama_Thriller",3.2500,2,6.5000
48883,"Crime_Drama_Mystery_Thriller",3.2500,2,6.5000
48982,"Animation_Comedy",3.5000,7,24.5000
48997,"Crime_Drama_Thriller",3.2500,8,26.0000
49013,"Comedy_Fantasy",2.7500,2,5.5000
49110,"Comedy_Sci-Fi",2.0000,1,2.0000
49130,"Comedy_Drama_Romance",3.6667,3,11.0000
49132,"Documentary",3.0000,3,9.0000
49220,"Comedy",2.3750,4,9.5000
49263,"Comedy_Documentary",3.0000,1,3.0000
49265,"Documentary_Drama_War",4.0000,1,4.0000
49272,"Action_Adventure_Thriller",3.9444,81,319.5000
49274,"Adventure_Animation_Children_Comedy_IMAX",2.6818,11,29.5000
49276,"Comedy",1.3333,3,4.0000
49278,"Action_Sci-Fi_Thriller",3.3000,20,66.0000
49280,"Drama",3.8333,3,11.5000
49284,"Comedy_Drama_Romance",2.6667,3,8.0000
49286,"Comedy_Romance",3.2083,24,77.0000
49314,"Action_Crime_Drama",3.0000,1,3.0000
49347,"Drama",3.8333,3,11.5000
49389,"Crime_Western",2.5000,2,5.0000
49396,"Adventure_Comedy_Musical",3.4444,9,31.0000
49524,"Drama",3.5000,2,7.0000
49530,"Action_Adventure_Crime_Drama_Thriller_War",3.7642,53,199.5000
49647,"Children_Comedy_Drama_Fantasy",3.3333,3,10.0000
49649,"Action_Adventure_Fantasy",2.3333,12,28.0000
49651,"Action_Drama",3.3214,14,46.5000
49666,"Drama_Fantasy_Romance",3.0000,1,3.0000
49688,"Action_Drama_War",4.0000,1,4.0000
49735,"Comedy",3.5000,1,3.5000
49772,"Drama_Romance",4.0000,4,16.0000
49793,"Drama",3.7500,2,7.5000
49822,"Drama_Thriller",3.1429,7,22.0000
49824,"Drama_Musical",3.1000,5,15.5000
49910,"Drama",3.7500,4,15.0000
49917,"Documentary",4.0000,1,4.0000
49932,"Drama_Mystery_Thriller",3.6667,6,22.0000
49957,"Comedy_Drama",3.0000,2,6.0000
49961,"Drama",3.7500,4,15.0000
50003,"Action_Adventure",2.0000,2,4.0000
50005,"Action_Drama",2.5000,3,7.5000
50064,"Drama_Mystery_Thriller",3.0000,1,3.0000
50068,"Drama_War",3.7059,17,63.0000
50147,"Action_Horror_Thriller",2.0000,1,2.0000
50158,"Drama_Musical",2.5000,2,5.0000
50160,"Drama",3.7500,2,7.5000
50189,"Comedy_Romance",1.1667,3,3.5000
50274,"Drama_Romance",3.5000,2,7.0000
50354,"Comedy",3.0000,1,3.0000
50356,"Comedy",3.0000,1,3.0000
50440,"Horror_Thriller",2.0000,1,2.0000
50442,"Crime_Drama",3.1250,8,25.0000
50445,"Action_Horror_Thriller",2.5000,2,5.0000
50514,"Drama",3.5000,1,3.5000
50601,"Adventure_Children_Fantasy",2.7778,9,25.0000
50610,"Comedy",4.0000,1,4.0000
50613,"Horror",4.5000,1,4.5000
50658,"Documentary",4.0000,2,8.0000
50685,"Comedy_Drama_Romance",3.8333,6,23.0000
50740,"Documentary",3.8333,3,11.5000
50792,"Comedy_Drama_Romance",2.2500,2,4.5000
50794,"Action_Crime_Drama_Thriller",3.1000,10,31.0000
50796,"Drama_Fantasy_Horror_Romance",2.0000,2,4.0000
50798,"Adventure_Comedy",1.1250,4,4.5000
50800,"Drama_Horror_Thriller",2.5000,2,5.0000
50802,"Comedy_Drama_Romance",3.0000,3,9.0000
50804,"Drama_Horror_Thriller",3.5000,3,10.5000
50806,"Comedy_Romance",1.0000,1,1.0000
50842,"Comedy_Drama",4.5000,2,9.0000
50851,"Documentary",4.5000,2,9.0000
50872,"Animation_Children_Drama",3.8681,72,278.5000
50912,"Romance",2.9375,8,23.5000
50923,"Drama",2.2500,2,4.5000
50942,"Comedy",3.5000,1,3.5000
50954,"Comedy_Romance",1.0000,2,2.0000
50999,"Animation_Comedy",5.0000,1,5.0000
51024,"Adventure_Drama_Fantasy",3.1667,3,9.5000
51037,"Drama_Mystery_Thriller",3.0000,4,12.0000
51077,"Action_Fantasy_Thriller",2.2500,12,27.0000
51080,"Drama_Thriller",3.5625,8,28.5000
51082,"Comedy_Romance",2.0000,1,2.0000
51084,"Comedy_Romance",3.1000,10,31.0000
51086,"Drama_Mystery_Thriller",2.9286,14,41.0000
51088,"Comedy",3.0000,2,6.0000
51091,"Drama",3.5000,4,14.0000
51167,"Drama",4.5000,1,4.5000
51174,"Drama",3.5000,1,3.5000
51255,"Action_Comedy_Crime_Mystery",4.0000,61,244.0000
51314,"Adventure_Drama_Romance",4.5000,1,4.5000
51357,"Crime_Drama_Thriller",4.0000,1,4.0000
51412,"Action_Sci-Fi_Thriller",2.8214,14,39.5000
51471,"Drama_Romance",3.0000,1,3.0000
51498,"Comedy_Horror",3.2500,2,6.5000
51540,"Crime_Drama_Thriller",3.7105,38,141.0000
51545,"Action_Comedy_Drama_Horror_Thriller",2.5000,1,2.5000
51562,"Sci-Fi",4.0000,1,4.0000
51573,"Fantasy",3.0000,1,3.0000
51575,"Adventure_Comedy",2.3000,5,11.5000
51662,"Action_Fantasy_War_IMAX",3.6812,80,294.5000
51666,"Horror_Mystery_Thriller",2.0000,1,2.0000
51694,"Drama_Romance",3.5000,1,3.5000
51698,"Adventure_Children_Sci-Fi",3.0000,2,6.0000
51705,"Comedy_Romance",4.2500,2,8.5000
51709,"Comedy_Drama_Horror_Sci-Fi_Thriller",4.0000,7,28.0000
51834,"Drama_Romance",2.9167,6,17.5000
51884,"Drama_Romance",3.6667,3,11.0000
51903,"Comedy_Drama_Romance",2.5000,1,2.5000
51925,"Drama_Fantasy_Mystery_Thriller",3.5000,3,10.5000
51927,"Horror_Mystery_Thriller",3.2500,2,6.5000
51931,"Drama",4.1000,5,20.5000
51933,"Drama",2.5000,1,2.5000
51935,"Action_Drama_Thriller",3.8600,25,96.5000
51937,"Horror_Thriller",2.5000,2,5.0000
51939,"Action_Adventure_Animation_Children_Comedy_Fantasy",3.0833,6,18.5000
52042,"Drama_Thriller_War",2.5000,1,2.5000
52241,"Crime_Drama_Thriller",3.2500,6,19.5000
52245,"Comedy_Romance",3.0882,17,52.5000
52279,"Comedy",1.5000,1,1.5000
52281,"Action_Crime_Horror_Sci-Fi_Thriller",3.4259,27,92.5000
52283,"Horror_Thriller",2.5000,3,7.5000
52287,"Action_Adventure_Animation_Children_Comedy_Sci-Fi",3.5455,11,39.0000
52299,"Documentary",3.5000,1,3.5000
52319,"Action_Adventure_Drama_War",3.5714,7,25.0000
52328,"Adventure_Drama_Sci-Fi_Thriller",3.6429,14,51.0000
52375,"Crime_Drama",3.5000,2,7.0000
52435,"Animation_Comedy_Fantasy_Musical",3.5909,11,39.5000
52458,"Drama_Thriller",3.1500,10,31.5000
52462,"Action_Adventure_Animation_Comedy_Fantasy_Mystery_Sci-Fi",3.0000,1,3.0000
52579,"Drama_Musical",3.2500,2,6.5000
52604,"Crime_Drama_Mystery_Thriller",3.6667,12,44.0000
52644,"Horror_Thriller",3.7500,2,7.5000
52668,"Comedy_Drama_Romance",4.0000,2,8.0000
52694,"Comedy",2.8750,4,11.5000
52712,"Crime_Drama_Fantasy_Mystery_Thriller",2.3333,3,7.0000
52715,"Comedy",2.0000,1,2.0000
52722,"Action_Adventure_Sci-Fi_Thriller_IMAX",3.0000,44,132.0000
52724,"Comedy_Drama",3.0000,1,3.0000
52730,"Children_Comedy",1.5000,2,3.0000
52767,"Documentary",4.0000,3,12.0000
52784,"Documentary",4.0000,1,4.0000
52831,"Action_Crime_Horror_Thriller",3.5000,1,3.5000
52867,"Comedy_Romance",4.0000,1,4.0000
52885,"Animation_Mystery_Sci-Fi",3.7778,9,34.0000
52950,"Action_Fantasy_Horror_Thriller",2.5000,2,5.0000
52952,"Drama",4.0000,8,32.0000
52967,"Drama",3.6250,4,14.5000
52973,"Comedy_Drama_Romance",3.6538,52,190.0000
52975,"Comedy_Drama_Musical",3.5000,15,52.5000
53000,"Horror_Sci-Fi_Thriller",3.5952,21,75.5000
53022,"Action_Comedy_Crime_Romance",3.7500,2,7.5000
53024,"Documentary",3.8750,4,15.5000
53121,"Adventure_Animation_Children_Comedy_Fantasy",3.0238,21,63.5000
53123,"Drama_Musical_Romance",3.9444,9,35.5000
53125,"Action_Adventure_Comedy_Fantasy",3.4375,56,192.5000
53127,"Drama_Horror_Thriller",2.8750,4,11.5000
53129,"Crime_Drama_Thriller",4.0000,7,28.0000
53138,"Action_Adventure_Fantasy",3.5000,2,7.0000
53140,"Action_Adventure_Comedy_Fantasy_Romance",3.7500,2,7.5000
53143,"Action_Thriller",2.0000,1,2.0000
53161,"Comedy_Drama_Romance_Sci-Fi",3.0000,2,6.0000
53280,"Horror_Thriller",5.0000,1,5.0000
53318,"Comedy_Drama_Romance",3.2500,4,13.0000
53322,"Crime_Thriller",3.4848,33,115.0000
53326,"Horror",2.0000,1,2.0000
53355,"Comedy_Romance",5.0000,1,5.0000
53435,"Crime_Horror_Thriller",2.0000,4,8.0000
53447,"Crime_Drama",4.0000,1,4.0000
53450,"Comedy_Fantasy_Horror",1.5000,1,1.5000
53453,"Action_Adventure_Fantasy_Sci-Fi",0.5000,1,0.5000
53460,"Animation_Children_Comedy",3.5000,7,24.5000
53464,"Action_Adventure_Sci-Fi",2.5750,20,51.5000
53466,"Adventure_Crime_Thriller",2.8333,3,8.5000
53468,"Comedy_Horror_Thriller",3.2857,7,23.0000
53519,"Action_Adventure_Crime_Horror_Thriller",3.1346,26,81.5000
53550,"Action_Adventure_Drama_War",3.3333,3,10.0000
53574,"Comedy_Drama",4.0000,2,8.0000
53578,"Comedy",5.0000,1,5.0000
53808,"Comedy",2.0000,1,2.0000
53883,"Documentary",4.5000,1,4.5000
53894,"Documentary_Drama",3.7143,14,52.0000
53921,"Drama_Thriller",3.5000,1,3.5000
53953,"Drama_Horror_Thriller",3.1600,25,79.0000
53956,"Comedy",3.2500,4,13.0000
53972,"Action_Adventure_Crime_Thriller",3.4062,32,109.0000
53974,"Comedy_Romance",2.3333,3,7.0000
53993,"Comedy_Fantasy",2.5385,13,33.0000
53996,"Action_Sci-Fi_Thriller_IMAX",3.3462,39,130.5000
54001,"Adventure_Drama_Fantasy_IMAX",3.8621,58,224.0000
54004,"Comedy_Romance",3.4545,11,38.0000
54116,"Drama_Thriller",3.2500,2,6.5000
54121,"Drama_Romance_Western",3.0000,1,3.0000
54185,"Documentary",3.7500,2,7.5000
54190,"Drama_Fantasy_Musical_Romance",4.0455,11,44.5000
54256,"Comedy",3.1429,7,22.0000
54259,"Adventure_Comedy_Fantasy_Romance",3.6029,34,122.5000
54272,"Animation_Comedy",3.6196,46,166.5000
54274,"Crime_Drama_Thriller",0.5000,1,0.5000
54276,"Comedy_Drama_Romance",3.2500,2,6.5000
54281,"Comedy_Drama",3.5000,5,17.5000
54286,"Action_Crime_Thriller",3.6975,81,299.5000
54354,"Documentary",4.0000,1,4.0000
54372,"Crime_Drama_Mystery_Thriller",3.8333,3,11.5000
54503,"Comedy",3.8636,55,212.5000
54617,"Comedy",3.5000,1,3.5000
54648,"Action_Comedy_Crime_Thriller",2.7000,5,13.5000
54686,"Action_Adventure_Fantasy_War",3.0000,1,3.0000
54732,"Comedy",2.8333,3,8.5000
54734,"Comedy",2.5000,2,5.0000
54736,"Action_Drama_Thriller",3.8125,8,30.5000
54745,"Comedy_Drama",3.2500,2,6.5000
54768,"Children_Comedy",0.5000,1,0.5000
54771,"Action_Drama_Horror_Sci-Fi_Thriller",3.0000,2,6.0000
54780,"Comedy_Drama_Romance",3.1667,3,9.5000
54785,"Horror",3.2500,4,13.0000
54787,"Drama_Thriller",3.5000,1,3.5000
54796,"Comedy_Drama_Romance",3.5000,1,3.5000
54881,"Documentary",3.9167,12,47.0000
54908,"Action_Comedy",2.0000,1,2.0000
54910,"Comedy_Horror_Thriller",4.0000,1,4.0000
54934,"Comedy",0.5000,1,0.5000
54962,"Drama_Mystery",2.5000,1,2.5000
54995,"Action_Horror_Sci-Fi",3.7955,22,83.5000
54997,"Action_Crime_Drama_Western",4.0600,25,101.5000
54999,"Action_Comedy_Crime",3.4583,12,41.5000
55020,"Comedy",4.5000,1,4.5000
55036,"Crime_Drama",2.5000,1,2.5000
55052,"Drama_Romance_War",3.5385,13,46.0000
55061,"Drama_Sci-Fi",1.0000,1,1.0000
55067,"Drama_Thriller",3.5000,1,3.5000
55069,"Drama",4.0000,3,12.0000
55071,"Documentary",4.0000,1,4.0000
55080,"Crime_Drama_Thriller",3.2500,2,6.5000
55094,"Drama_Mystery",3.5000,3,10.5000
55110,"Drama",3.0000,1,3.0000
55112,"Comedy_Drama_Romance",4.0000,1,4.0000
55116,"Action_Adventure_Comedy_Drama_Thriller",2.6667,3,8.0000
55118,"Crime_Drama_Thriller",4.0263,19,76.5000
55156,"Documentary",4.0000,1,4.0000
55167,"Action_Adventure_Animation_Crime_Fantasy",4.6250,4,18.5000
55190,"Comedy_Romance",3.0000,1,3.0000
55205,"Drama",2.5000,1,2.5000
55207,"Comedy_Drama",3.0000,1,3.0000
55232,"Action_Horror_Sci-Fi_Thriller",2.9500,10,29.5000
55241,"Comedy",2.6667,3,8.0000
55245,"Comedy_Romance",3.2500,4,13.0000
55247,"Action_Adventure_Drama",3.9024,41,160.0000
55250,"Comedy",2.6667,3,8.0000
55253,"Drama_Romance_Thriller_War",3.7500,4,15.0000
55259,"Action_Adventure_Drama_Fantasy",1.0000,1,1.0000
55261,"Comedy_Drama_Romance",2.5000,8,20.0000
55267,"Comedy_Drama_Romance",3.3889,9,30.5000
55269,"Adventure_Comedy_Drama",3.4286,21,72.0000
55272,"Crime_Drama",3.7500,2,7.5000
55274,"Drama",2.7500,2,5.5000
55276,"Drama_Thriller",3.9118,17,66.5000
55278,"Drama_Mystery_Thriller",4.2500,2,8.5000
55280,"Comedy_Drama",3.5625,8,28.5000
55282,"Horror_Thriller",3.1818,11,35.0000
55290,"Crime_Drama_Mystery",3.4500,20,69.0000
55292,"Comedy",0.7500,2,1.5000
55294,"Comedy_Crime_Drama",2.5000,1,2.5000
55363,"Crime_Drama_Western",4.1000,10,41.0000
55391,"Crime_Drama_Thriller",4.5000,1,4.5000
55442,"Animation_Drama",4.1818,11,46.0000
55444,"Drama",4.1667,3,12.5000
55451,"Comedy_Drama_Romance",3.5000,2,7.0000
55492,"Horror",4.0000,1,4.0000
55553,"Comedy_Horror",2.3333,3,7.0000
55555,"Drama",3.5000,1,3.5000
55577,"Crime_Horror_Thriller",3.2000,5,16.0000
55620,"Documentary",3.2500,2,6.5000
55687,"Documentary",4.5000,1,4.5000
55721,"Action_Crime_Drama_Thriller",4.3000,10,43.0000
55729,"Comedy",3.0000,1,3.0000
55765,"Crime_Drama_Thriller",3.9054,37,144.5000
55768,"Animation_Comedy",3.1500,10,31.5000
55805,"Crime_Drama_Thriller",3.0000,1,3.0000
55814,"Drama",4.1000,5,20.5000
55820,"Crime_Drama",3.8984,64,249.5000
55830,"Comedy",3.4000,10,34.0000
55844,"Comedy_Drama_Romance",3.5000,1,3.5000
55854,"Drama",3.0000,1,3.0000
55872,"Drama_Musical",3.5000,6,21.0000
55908,"Drama_Sci-Fi",4.1875,8,33.5000
55946,"Drama_Thriller_War",4.0000,2,8.0000
55995,"Action_Adventure_Animation_Fantasy_IMAX",2.5625,8,20.5000
56003,"Comedy_Drama_Sci-Fi_Thriller",3.0000,2,6.0000
56012,"Comedy_Documentary",2.7500,2,5.5000
56022,"Drama_Sci-Fi",2.0000,1,2.0000
56060,"Comedy_Drama_Romance_War",4.5000,1,4.5000
56145,"Horror_Sci-Fi",3.4286,14,48.0000
56152,"Adventure_Animation_Children_Comedy_Fantasy_Musical_Romance",3.6765,17,62.5000
56156,"Action_Crime_Thriller",3.2857,7,23.0000
56169,"Drama_Thriller",4.0000,1,4.0000
56171,"Adventure_Children_Fantasy",3.1111,18,56.0000
56174,"Action_Horror_Sci-Fi_Thriller_IMAX",3.4839,62,216.0000
56176,"Children_Comedy",1.5000,3,4.5000
56251,"Animation_Comedy_Sci-Fi",3.9000,10,39.0000
56274,"Drama",3.0000,1,3.0000
56286,"Drama",3.5000,2,7.0000
56333,"Comedy_Drama",3.5000,1,3.5000
56336,"Action_Horror_Thriller",3.0000,2,6.0000
56339,"Drama_Horror_Mystery_Thriller",3.8750,8,31.0000
56367,"Comedy_Drama_Romance",3.7692,65,245.0000
56379,"Documentary",3.0000,2,6.0000
56389,"Drama_Romance",4.0000,1,4.0000
56563,"Documentary",3.2500,4,13.0000
56587,"Comedy_Drama",3.2308,13,42.0000
56607,"Drama",3.3333,3,10.0000
56620,"Horror_Thriller",3.0000,1,3.0000
56715,"Drama_Fantasy_Romance",4.0000,6,24.0000
56757,"Drama_Horror_Musical_Thriller",3.7167,30,111.5000
56775,"Action_Adventure",3.0417,24,73.0000
56782,"Drama_Western",4.1429,28,116.0000
56788,"Comedy_Drama_War",3.3750,8,27.0000
56801,"Action_Horror_Sci-Fi",2.5833,6,15.5000
56805,"Comedy_Musical",3.3000,5,16.5000
56837,"Comedy_Drama_Romance",3.0000,1,3.0000
56869,"Comedy",4.0000,1,4.0000
56908,"Comedy_Drama_Romance",4.0000,1,4.0000
56915,"Adventure_Children_Fantasy",4.0000,1,4.0000
56921,"Action_Drama_Sci-Fi_Thriller",3.8000,5,19.0000
56941,"Comedy_Drama_Romance",3.0909,11,34.0000
56949,"Comedy_Romance",3.3000,20,66.0000
57147,"Crime_Drama_Thriller",4.0000,1,4.0000
57183,"Drama",4.5000,2,9.0000
57243,"Comedy_Drama",3.5000,3,10.5000
57274,"Drama_Horror_Thriller",4.0625,8,32.5000
57326,"Action_Adventure_Fantasy",0.5000,1,0.5000
57368,"Action_Mystery_Sci-Fi_Thriller",3.3519,27,90.5000
57421,"Comedy_Horror",4.0000,1,4.0000
57499,"Action_Adventure_Drama_War",3.0000,1,3.0000
57502,"Adventure_Animation_Drama_Horror",4.0000,1,4.0000
57504,"Animation_Comedy_Drama_Romance_Sci-Fi",4.1000,10,41.0000
57522,"Comedy_Crime",3.5000,1,3.5000
57526,"Crime_Thriller",3.0000,1,3.0000
57528,"Action_Drama_Thriller_War",3.2778,9,29.5000
57532,"Comedy",2.5000,3,7.5000
57536,"Comedy",3.2500,2,6.5000
57637,"Horror_Sci-Fi_Thriller",3.5000,1,3.5000
57640,"Action_Adventure_Fantasy_Sci-Fi",3.8056,18,68.5000
57669,"Comedy_Crime_Drama_Thriller",4.1585,41,170.5000
57772,"Crime_Sci-Fi",3.7500,2,7.5000
57843,"Action_Crime_Drama",4.5000,1,4.5000
57910,"Comedy_Horror",2.0000,1,2.0000
57951,"Action_Adventure_Comedy_Romance",2.3333,3,7.0000
58025,"Action_Adventure_Drama_Sci-Fi_Thriller",3.0000,18,54.0000
58047,"Comedy_Drama_Romance",3.4286,14,48.0000
58078,"Crime_Drama_Romance_Thriller",3.0000,1,3.0000
58103,"Action_Drama_Thriller",3.4167,6,20.5000
58105,"Adventure_Children_Drama_Fantasy_IMAX",3.4000,5,17.0000
58107,"Drama_Musical_Romance",3.2500,2,6.5000
58154,"Drama_Romance",3.7857,7,26.5000
58156,"Comedy",2.9000,10,29.0000
58162,"Comedy_Romance",3.0000,7,21.0000
58191,"Documentary",4.0000,1,4.0000
58287,"Drama_Thriller",1.0000,1,1.0000
58291,"Comedy",4.5000,1,4.5000
58293,"Adventure_Romance_Thriller",2.7059,17,46.0000
58295,"Action_Crime_Thriller",3.6154,13,47.0000
58297,"Action_Drama_Sci-Fi_Thriller",4.0000,1,4.0000
58299,"Adventure_Animation_Children_Comedy",3.4375,8,27.5000
58301,"Drama_Thriller",4.3750,4,17.5000
58303,"Crime_Drama_War",3.3333,3,10.0000
58306,"Drama_War",2.5000,1,2.5000
58309,"Documentary",4.5000,1,4.5000
58315,"Comedy",2.1250,4,8.5000
58332,"Horror_Sci-Fi",2.8333,3,8.5000
58347,"Comedy_Fantasy_Romance",3.5000,4,14.0000
58351,"Drama",4.0000,1,4.0000
58376,"Documentary_War",3.7500,2,7.5000
58404,"Action_Adventure_Animation_Fantasy_Sci-Fi",2.7500,2,5.5000
58425,"Documentary",4.1667,3,12.5000
58492,"Drama",3.0000,1,3.0000
58554,"Drama",3.5000,2,7.0000
58559,"Action_Crime_Drama_IMAX",4.2383,149,631.5000
58627,"Action",3.5000,1,3.5000
58655,"Comedy",3.5000,2,7.0000
58783,"Drama_Romance_Sci-Fi",2.5000,1,2.5000
58803,"Crime_Drama_Romance_Thriller",3.7500,18,67.5000
58806,"Comedy_Drama_Romance",2.7500,2,5.5000
58826,"Action_Crime_Thriller",2.5000,1,2.5000
58839,"Comedy_Drama_Romance",2.3750,4,9.5000
58842,"Action_Drama_War",4.5000,1,4.5000
58870,"Comedy",3.5000,2,7.0000
58876,"Drama_War",3.2500,2,6.5000
58879,"Documentary_Musical_IMAX",3.5000,1,3.5000
58964,"Horror_Thriller",4.0000,1,4.0000
58972,"Adventure_Comedy_Fantasy",3.0000,2,6.0000
58975,"Horror_Thriller",3.5000,1,3.5000
58998,"Comedy_Romance",3.7692,39,147.0000
59014,"Action_Comedy_Sci-Fi",2.0000,3,6.0000
59016,"Crime_Drama_Thriller",2.5000,1,2.5000
59018,"Drama_Romance",4.5000,1,4.5000
59022,"Adventure_Comedy",3.3077,13,43.0000
59026,"Comedy",4.0000,1,4.0000
59037,"Action_Children_Sci-Fi_IMAX",3.1667,3,9.5000
59103,"Action_Adventure_Comedy_Fantasy",3.8333,3,11.5000
59118,"Comedy_Drama",3.5000,1,3.5000
59126,"Comedy_Documentary",3.8000,5,19.0000
59129,"Action_Horror",2.0000,2,4.0000
59131,"Horror",3.5000,1,3.5000
59141,"Children_Comedy_Drama",4.6667,3,14.0000
59143,"Comedy_Documentary",4.2500,2,8.5000
59220,"Comedy_Romance",3.5000,1,3.5000
59258,"Comedy",3.1364,11,34.5000
59295,"Documentary",1.0000,1,1.0000
59306,"Horror_Mystery_Thriller",0.7500,2,1.5000
59315,"Action_Adventure_Sci-Fi",3.8245,94,359.5000
59333,"Comedy_Romance",2.8750,4,11.5000
59336,"Action_Drama",3.0000,1,3.0000
59369,"Action_Crime_Drama_Thriller",3.6190,42,152.0000
59387,"Adventure_Drama_Fantasy",3.9545,11,43.5000
59421,"Comedy_Romance",2.7500,8,22.0000
59429,"Comedy",2.7500,2,5.5000
59440,"Drama_Romance",3.5000,1,3.5000
59501,"Adventure_Children_Fantasy",3.5417,12,42.5000
59549,"Drama_Romance",4.0000,1,4.0000
59604,"Crime_Drama_Horror_Thriller",3.7500,2,7.5000
59615,"Action_Adventure_Comedy_Sci-Fi",2.8333,39,110.5000
59667,"Comedy",4.0000,1,4.0000
59725,"Comedy_Romance",2.4091,11,26.5000
59727,"Horror_Thriller",3.1667,3,9.5000
59731,"Documentary",3.5000,1,3.5000
59738,"Horror_Mystery_Thriller",3.0000,1,3.0000
59784,"Action_Animation_Children_Comedy_IMAX",3.4444,54,186.0000
59810,"Drama",3.5000,1,3.5000
59814,"Comedy_Crime_Drama_Horror",5.0000,1,5.0000
59900,"Comedy",2.8667,15,43.0000
59915,"Horror_Thriller",3.5000,1,3.5000
59947,"Action_Comedy_Drama_Thriller",2.0000,1,2.0000
59985,"Comedy_Drama_Romance",4.0000,1,4.0000
59995,"Crime_Drama",4.0000,1,4.0000
60030,"Drama_Horror_Thriller",4.5000,1,4.5000
60037,"Drama_Sci-Fi_Thriller",3.0000,5,15.0000
60040,"Action_Sci-Fi",3.1714,35,111.0000
60046,"Drama_War",3.5000,1,3.5000
60069,"Adventure_Animation_Children_Romance_Sci-Fi",4.0577,104,422.0000
60072,"Action_Thriller",3.1591,22,69.5000
60074,"Action_Adventure_Comedy_Crime_Fantasy",3.0345,29,88.0000
60126,"Action_Comedy",3.4688,16,55.5000
60128,"Comedy",2.2500,2,4.5000
60141,"Children_Comedy",2.5000,1,2.5000
60161,"Action_Animation_Comedy_Romance_Sci-Fi",3.5000,6,21.0000
60289,"Children_Comedy_Drama_Mystery",3.0000,2,6.0000
60291,"Documentary",3.7500,2,7.5000
60293,"Comedy_Drama_Romance",4.0000,3,12.0000
60303,"Horror_Mystery_Thriller",4.0000,1,4.0000
60333,"Documentary",4.5000,3,13.5000
60363,"Comedy_Horror",0.5000,1,0.5000
60365,"Animation_Children_Comedy_Fantasy_Musical",1.5000,1,1.5000
60389,"War",4.0000,1,4.0000
60397,"Comedy_Musical_Romance",2.9643,14,41.5000
60408,"Comedy",4.5000,2,9.0000
60471,"Action_Adventure_Horror_Sci-Fi_Thriller",3.5000,1,3.5000
60487,"Animation_Children_Comedy",3.8000,5,19.0000
60514,"Action_Adventure_Sci-Fi",2.5000,5,12.5000
60516,"Adventure_Children_Comedy_Romance_Sci-Fi",3.5000,2,7.0000
60522,"Action_Comedy_Fantasy_Horror_Thriller",2.2500,2,4.5000
60538,"Horror_Thriller",3.5000,1,3.5000
60647,"Crime_Drama_Thriller",2.5000,1,2.5000
60674,"Sci-Fi",2.5000,1,2.5000
60684,"Action_Drama_Mystery_Sci-Fi_Thriller_IMAX",3.9884,43,171.5000
60735,"Drama_Thriller",2.5000,1,2.5000
60737,"Comedy_Romance",5.0000,1,5.0000
60753,"Crime_Drama",3.5000,2,7.0000
60756,"Comedy",3.5536,28,99.5000
60760,"Drama_Mystery_Sci-Fi_Thriller",2.8750,4,11.5000
60766,"Documentary",3.6875,8,29.5000
60803,"Animation_Children_Musical",2.5000,1,2.5000
60818,"Adventure_Fantasy_Thriller",4.0000,1,4.0000
60832,"Crime_Horror_Thriller",4.0000,1,4.0000
60857,"Drama",3.0000,1,3.0000
60885,"Drama_Thriller",3.5000,2,7.0000
60894,"Drama_Romance_War",3.0000,1,3.0000
60904,"Comedy_Drama_Sci-Fi",4.0000,1,4.0000
60937,"Action_Adventure_Fantasy_Thriller",2.6429,7,18.5000
60941,"Horror_Mystery_Thriller",2.8750,4,11.5000
60943,"Drama",4.5000,1,4.5000
60950,"Comedy_Drama_Romance",3.0938,16,49.5000
60979,"Action_Animation_Crime",3.5000,3,10.5000
61011,"Drama_Mystery",2.0000,1,2.0000
61024,"Action_Comedy_Crime",3.6774,31,114.0000
61026,"Action_Adventure_Drama_War",4.0000,3,12.0000
61071,"Adventure_Comedy_Drama_Romance",2.5000,1,2.5000
61073,"Action_Drama_Thriller",2.0000,1,2.0000
61123,"Comedy_Drama_Musical_Romance",2.0000,1,2.0000
61132,"Action_Adventure_Comedy_War",3.5000,33,115.5000
61160,"Action_Adventure_Animation_Sci-Fi",2.3571,7,16.5000
61167,"Drama_Mystery",4.0000,1,4.0000
61210,"Action_Adventure_Sci-Fi",3.5000,1,3.5000
61236,"Animation_Documentary_Drama_War",3.0000,5,15.0000
61240,"Drama_Fantasy_Horror_Romance",3.9118,17,66.5000
61246,"Comedy",2.0000,1,2.0000
61248,"Action_Adventure_Sci-Fi_Thriller",3.2222,9,29.0000
61250,"Comedy",2.5000,10,25.0000
61255,"Comedy",2.7500,2,5.5000
61257,"Documentary",4.0000,1,4.0000
61262,"Horror_Mystery_Thriller",1.5000,1,1.5000
61289,"Action_Western",3.3333,3,10.0000
61319,"Drama",3.5000,1,3.5000
61323,"Comedy_Crime_Drama",3.4872,39,136.0000
61348,"Comedy",0.8333,3,2.5000
61350,"Action_Adventure_Sci-Fi_Thriller",2.3333,3,7.0000
61352,"Crime_Drama_Thriller",3.3750,4,13.5000
61394,"Comedy",4.0000,1,4.0000
61401,"Action_Comedy_Fantasy_Thriller",2.5000,2,5.0000
61406,"Drama",4.0000,2,8.0000
61465,"Action_Crime_Thriller",3.2500,2,6.5000
61628,"Drama",2.0000,1,2.0000
61692,"Horror_Sci-Fi_Thriller",3.0000,1,3.0000
61697,"Crime_Mystery_Thriller",3.0000,1,3.0000
61705,"Drama_Thriller",3.0000,2,6.0000
61729,"Comedy_Fantasy_Romance",2.0000,2,4.0000
61818,"Action_Adventure_Fantasy_Thriller",0.5000,1,0.5000
61986,"Western",3.0000,1,3.0000
62008,"Action_Animation_Comedy_Horror",3.0000,1,3.0000
62081,"Action_Crime_Thriller_IMAX",3.0625,8,24.5000
62113,"Comedy",2.8333,6,17.0000
62155,"Comedy_Drama_Romance",3.3500,10,33.5000
62208,"Drama",4.5000,1,4.5000
62250,"Crime_Drama",3.7000,5,18.5000
62293,"Drama_Romance",3.5000,4,14.0000
62299,"Action_Horror",3.5000,1,3.5000
62336,"Animation_Comedy_Fantasy_Sci-Fi",4.2778,9,38.5000
62344,"Drama_Romance",2.7500,2,5.5000
62374,"Action_Drama_Thriller",3.7727,11,41.5000
62376,"Adventure_Children_Sci-Fi",2.8333,3,8.5000
62383,"Action_Adventure_Sci-Fi",3.7500,2,7.5000
62394,"Action_Crime_Drama_Thriller",2.1667,3,6.5000
62434,"Comedy_Drama_Romance",3.5238,21,74.0000
62437,"Drama",2.5000,1,2.5000
62439,"Comedy_Romance",4.0000,3,12.0000
62511,"Comedy_Drama",3.1250,4,12.5000
62553,"Drama",4.0000,1,4.0000
62586,"Comedy_Fantasy",2.0000,1,2.0000
62644,"Drama",3.5714,7,25.0000
62662,"Documentary",3.0000,1,3.0000
62718,"Comedy_Romance",2.5000,1,2.5000
62792,"Crime_Drama",3.0000,2,6.0000
62799,"Drama",3.0000,1,3.0000
62834,"Sci-Fi",4.0000,1,4.0000
62836,"Sci-Fi",4.0000,1,4.0000
62849,"Action_Crime",3.7692,13,49.0000
62956,"Action_Adventure_Animation_Comedy_Fantasy_Sci-Fi",3.4444,9,31.0000
62970,"Adventure_Fantasy_Sci-Fi",2.2500,2,4.5000
62999,"Action_Adventure_Animation_Children_Comedy_IMAX",3.6923,13,48.0000
63033,"Drama_Mystery_Romance_Thriller",3.5000,1,3.5000
63062,"Crime_Drama_Mystery",3.4375,8,27.5000
63072,"Adventure_Drama_Thriller",3.8889,9,35.0000
63082,"Crime_Drama_Romance",3.8099,71,270.5000
63113,"Action_Adventure_Thriller",3.4571,35,121.0000
63131,"Comedy",3.6250,20,72.5000
63179,"Drama",3.5000,1,3.5000
63222,"Action_Drama_Thriller",3.2500,2,6.5000
63239,"Children_Fantasy_Musical_Romance",3.0000,1,3.0000
63276,"Action",4.0000,2,8.0000
63312,"Drama_Fantasy",2.0000,1,2.0000
63393,"Comedy_Musical_Romance",1.0000,1,1.0000
63433,"Action_Adventure_Sci-Fi",3.5000,4,14.0000
63436,"Crime_Horror_Thriller",3.1667,3,9.5000
63479,"Comedy",3.6250,4,14.5000
63515,"Drama_Mystery",4.0000,1,4.0000
63540,"Adventure_Children_Comedy",2.1250,4,8.5000
63768,"Crime_Drama",3.0000,1,3.0000
63808,"Drama",2.7500,2,5.5000
63826,"Action_Horror_Thriller",4.0000,1,4.0000
63853,"Adventure_Drama_War_Western",3.2000,5,16.0000
63859,"Action_Adventure_Animation_Children_Comedy",3.3889,18,61.0000
63876,"Drama",3.5455,11,39.0000
63992,"Drama_Fantasy_Romance_Thriller",2.4091,22,53.0000
64010,"Horror",3.5000,1,3.5000
64030,"Action_Adventure_Crime_Thriller",2.6667,6,16.0000
64032,"Comedy",2.8333,3,8.5000
64034,"Drama_War",3.4167,6,20.5000
64114,"Drama_Romance",1.0000,1,1.0000
64116,"Animation_Comedy",3.5000,2,7.0000
64167,"Adventure_Fantasy",3.3333,3,10.0000
64197,"Drama",4.7500,2,9.5000
64231,"Action_Crime_Drama_Thriller",3.0000,6,18.0000
64249,"Adventure_Animation_Comedy_Fantasy",2.5000,2,5.0000
64278,"Documentary",3.5000,1,3.5000
64285,"Animation_Comedy",3.7000,5,18.5000
64497,"Drama_Sci-Fi_Thriller_IMAX",2.7857,7,19.5000
64499,"Drama_War",5.0000,1,5.0000
64501,"Drama_War",5.0000,1,5.0000
64575,"Drama_Mystery",3.3571,7,23.5000
64614,"Crime_Drama",3.9457,46,181.5000
64620,"Drama",3.9444,9,35.5000
64622,"Drama_Romance",3.2143,7,22.5000
64695,"Action_Adventure_Animation",4.0000,1,4.0000
64716,"Drama",4.1364,11,45.5000
64839,"Drama",3.7353,34,127.0000
64957,"Drama_Fantasy_Mystery_Romance",3.5946,37,133.0000
64969,"Comedy",3.6176,34,123.0000
64983,"Drama_Thriller_War",3.4091,11,37.5000
64993,"Animation_Drama_Romance",3.5000,3,10.5000
64997,"Action_Sci-Fi",3.0000,2,6.0000
65037,"Drama",3.5000,1,3.5000
65088,"Adventure_Children_Comedy",3.3636,11,37.0000
65126,"Comedy_Drama",3.5000,3,10.5000
65130,"Drama_Romance",3.7000,5,18.5000
65133,"Comedy",3.5000,2,7.0000
65135,"Comedy",3.0000,1,3.0000
65188,"Documentary",3.8750,4,15.5000
65193,"Drama_Romance",3.0000,1,3.0000
65216,"Drama_Thriller_War",3.9286,7,27.5000
65225,"Documentary",4.5000,1,4.5000
65230,"Comedy_Drama",3.1429,14,44.0000
65261,"Adventure_Animation_Children_Fantasy",4.0000,11,44.0000
65350,"Adventure_Crime_Thriller",0.5000,1,0.5000
65359,"Adventure_Drama_Fantasy",3.0000,1,3.0000
65514,"Action_Drama_War",3.9500,10,39.5000
65577,"Adventure_Animation_Children_Comedy_Fantasy",3.0000,1,3.0000
65585,"Comedy_Romance",3.5000,4,14.0000
65588,"Action_Adventure_Comedy_Fantasy",2.5000,1,2.5000
65596,"Action_Crime_Drama_Thriller",4.0000,1,4.0000
65601,"Horror_Thriller",2.0000,1,2.0000
65631,"Action_Drama",4.0000,1,4.0000
65642,"Sci-Fi_Thriller",4.2500,4,17.0000
65651,"Adventure_Fantasy",2.0000,1,2.0000
65682,"Action_Fantasy_Horror_Thriller",3.6429,7,25.5000
65685,"Adventure_Fantasy",3.5000,5,17.5000
65738,"Comedy",4.0000,1,4.0000
65740,"Comedy_Romance",4.0000,1,4.0000
65802,"Action_Comedy_Crime",2.7143,7,19.0000
65810,"Drama_Musical",3.0000,1,3.0000
65882,"Drama_Horror_Mystery_Thriller",3.5000,1,3.5000
65982,"Action_Adventure_Sci-Fi",3.3333,3,10.0000
66090,"Horror_Thriller",4.0000,1,4.0000
66097,"Animation_Fantasy_Thriller",3.7000,35,129.5000
66171,"Sci-Fi_Thriller",3.0000,2,6.0000
66198,"Drama_Thriller",3.0000,2,6.0000
66203,"Comedy_Drama_Romance",2.8182,11,31.0000
66240,"Comedy_Fantasy",3.5000,1,3.5000
66297,"Action_Animation_Comedy_Sci-Fi",3.5000,6,21.0000
66310,"Drama_Horror_Thriller",3.5000,1,3.5000
66320,"Documentary",4.0000,1,4.0000
66335,"Animation",2.5000,1,2.5000
66371,"Drama",4.1000,5,20.5000
66427,"Comedy_Horror",3.0000,1,3.0000
66509,"Comedy_Drama",3.5000,5,17.5000
66511,"Comedy_Drama",4.2500,2,8.5000
66544,"Drama_War",4.0000,1,4.0000
66665,"Comedy_Drama_Romance",3.5000,4,14.0000
66744,"Drama",4.0000,2,8.0000
66783,"Horror",3.0000,2,6.0000
66785,"Action_Adventure_Comedy_Western",3.8000,5,19.0000
66798,"Adventure_Comedy_Mystery",2.7500,2,5.5000
66915,"Adventure_Animation_Children_Musical",2.0000,1,2.0000
66934,"Comedy_Drama_Musical_Sci-Fi",3.9167,24,94.0000
66943,"Comedy_Crime_Horror_Thriller",4.2500,2,8.5000
67087,"Comedy",3.5294,17,60.0000
67168,"Adventure_Comedy_Horror",3.5000,1,3.5000
67186,"Horror_Thriller",2.5000,2,5.0000
67193,"Crime_Romance_Thriller",2.5000,1,2.5000
67197,"Action_Drama_Mystery_Sci-Fi_Thriller",2.8333,9,25.5000
67255,"Crime_Drama_Mystery_Thriller",3.9400,25,98.5000
67267,"Comedy_Drama",3.3750,4,13.5000
67295,"Action_Animation_Children_Comedy",2.8750,4,11.5000
67361,"Action_Mystery_Thriller",2.0000,1,2.0000
67408,"Animation_Sci-Fi_IMAX",3.2500,8,26.0000
67508,"Action_Crime_Drama_Thriller",4.0000,1,4.0000
67534,"Comedy",2.7500,2,5.5000
67618,"Comedy_Drama_Romance",5.0000,1,5.0000
67665,"Documentary_Musical",3.7500,2,7.5000
67695,"Action_Comedy",2.6250,4,10.5000
67734,"Comedy_Drama",3.3333,15,50.0000
67788,"Comedy_Romance",3.5000,4,14.0000
67799,"Drama_Fantasy_Sci-Fi_Thriller",0.5000,1,0.5000
67888,"Comedy",4.5000,1,4.5000
67923,"Action_Crime_Drama_Thriller",3.2500,10,32.5000
67997,"Comedy",4.3000,5,21.5000
68073,"Comedy_Drama",3.4000,5,17.0000
68135,"Comedy_Drama",3.5500,10,35.5000
68157,"Action_Drama_War",4.1364,88,364.0000
68159,"Crime_Drama_Thriller",4.0000,3,12.0000
68194,"Drama",4.2500,2,8.5000
68205,"Action_Comedy_Crime",2.9375,8,23.5000
68237,"Drama_Mystery_Sci-Fi_Thriller",3.9688,32,127.0000
68269,"Drama_Romance",4.2500,2,8.5000
68319,"Action_Sci-Fi_Thriller",2.8654,26,74.5000
68347,"Crime_Drama_Thriller",4.0000,1,4.0000
68358,"Action_Adventure_Sci-Fi_IMAX",3.8644,59,228.0000
68444,"Comedy",3.5000,1,3.5000
68480,"Action_Comedy_Crime",1.5000,1,1.5000
68486,"Action_Drama_War",4.0000,3,12.0000
68522,"Documentary",3.5000,1,3.5000
68536,"Documentary",4.0000,1,4.0000
68552,"Drama",2.0000,1,2.0000
68554,"Crime_Drama_Mystery_Thriller",3.2647,17,55.5000
68597,"Action_Drama_Thriller",4.0000,1,4.0000
68600,"Comedy",2.0000,1,2.0000
68650,"Drama",2.0000,1,2.0000
68659,"Adventure_Comedy_Drama",2.8750,8,23.0000
68791,"Action_Adventure_Sci-Fi_Thriller",3.2500,18,58.5000
68793,"Action_Comedy_IMAX",3.1000,10,31.0000
68835,"Adventure_Fantasy_Musical_Romance",3.5000,1,3.5000
68848,"Adventure_Comedy_Crime_Romance",4.3333,3,13.0000
68872,"Drama_War",4.0000,1,4.0000
68886,"Comedy_Romance",4.0000,1,4.0000
68932,"Drama_Musical",3.5000,2,7.0000
68945,"Action_Animation_Mystery_Sci-Fi",4.0000,2,8.0000
68952,"Comedy_Horror",3.7500,6,22.5000
68954,"Adventure_Animation_Children_Drama",4.0048,105,420.5000
68959,"Action_Adventure_Animation_Drama",2.7500,2,5.5000
69069,"Comedy",3.5833,6,21.5000
69118,"Drama_Mystery",1.5000,1,1.5000
69122,"Comedy_Crime",3.6316,76,276.0000
69131,"Action_Crime_Drama_Thriller",2.5000,1,2.5000
69134,"Drama_Fantasy",3.8000,5,19.0000
69140,"Crime_Drama_Horror_Thriller",4.0000,1,4.0000
69211,"Comedy_Horror",5.0000,1,5.0000
69224,"Comedy_Drama_Romance",4.0000,1,4.0000
69227,"Children_Comedy",1.0000,1,1.0000
69251,"Drama_Fantasy",3.5000,1,3.5000
69275,"Action_Adventure_Comedy_Horror",4.2500,4,17.0000
69278,"Action_Adventure_Comedy_Sci-Fi",3.2143,7,22.5000
69304,"Comedy_Drama_Fantasy",4.0000,1,4.0000
69306,"Crime_Drama_Thriller",3.1667,6,19.0000
69394,"Crime_Drama",4.5000,1,4.5000
69406,"Comedy_Romance",3.5000,16,56.0000
69436,"Adventure_Comedy",2.7857,7,19.5000
69453,"Adventure_Sci-Fi",1.5000,2,3.0000
69469,"Animation",5.0000,1,5.0000
69481,"Action_Drama_Thriller_War",4.0588,34,138.0000
69495,"Drama_Romance",3.5000,1,3.5000
69516,"Crime_Drama_Film-Noir",2.7500,2,5.5000
69524,"Action_Adventure_Thriller",4.3333,3,13.0000
69526,"Action_Adventure_Sci-Fi_IMAX",2.4250,20,48.5000
69529,"Documentary",4.5000,2,9.0000
69604,"Comedy_Romance",3.0000,2,6.0000
69606,"Comedy_Fantasy_Romance",2.5000,3,7.5000
69640,"Crime_Drama_Thriller",3.0556,9,27.5000
69644,"Action_Adventure_Animation_Children_Comedy_Romance",2.6071,14,36.5000
69654,"Action_Drama_Thriller",3.5000,1,3.5000
69685,"Animation_Comedy",1.0000,1,1.0000
69712,"Drama",4.0000,1,4.0000
69720,"Comedy_Drama_Horror",4.5000,1,4.5000
69746,"Action_Adventure_Animation_Horror",3.5000,1,3.5000
69757,"Comedy_Drama_Romance",3.6667,42,154.0000
69784,"Comedy",3.6500,10,36.5000
69805,"Action_Adventure_Fantasy",3.7500,2,7.5000
69844,"Adventure_Fantasy_Mystery_Romance_IMAX",3.8879,58,225.5000
69849,"Drama_War",3.1667,3,9.5000
69860,"Drama_War",5.0000,1,5.0000
69904,"Drama_Thriller",2.5000,1,2.5000
69951,"Drama_Fantasy",3.8125,16,61.0000
69953,"Documentary",3.5000,1,3.5000
69988,"Comedy",2.5000,1,2.5000
70015,"Crime_Drama",1.5000,1,1.5000
70159,"Drama_Horror_Mystery_Thriller",3.0000,4,12.0000
70183,"Comedy_Drama_Romance",3.6667,12,44.0000
70206,"Crime_Horror_Thriller",3.5000,1,3.5000
70208,"Horror_Thriller",4.0000,1,4.0000
70286,"Mystery_Sci-Fi_Thriller",3.7769,65,245.5000
70293,"Comedy_Drama_Romance",2.9583,12,35.5000
70301,"Crime_Drama_Thriller",3.5000,1,3.5000
70305,"Adventure_Children_Fantasy_Sci-Fi_Thriller",3.5000,2,7.0000
70334,"Comedy_Drama_Musical_Romance",3.5000,1,3.5000
70336,"Action_Adventure_Sci-Fi_Thriller",2.6250,8,21.0000
70361,"Action_Thriller",3.0000,3,9.0000
70451,"Action_Drama_War",5.0000,1,5.0000
70492,"Western",3.5000,1,3.5000
70521,"Drama_Fantasy_Romance_Sci-Fi",3.6667,3,11.0000
70533,"Action_Animation_Sci-Fi",3.8333,3,11.5000
70545,"Comedy",2.0000,1,2.0000
70565,"Comedy",3.6250,4,14.5000
70599,"Drama_Romance_Sci-Fi",3.9000,5,19.5000
70637,"Drama_Romance",4.0000,1,4.0000
70641,"Comedy",2.8333,3,8.5000
70663,"Comedy_Romance",2.5000,1,2.5000
70687,"Comedy_Documentary_Drama_Romance",2.7500,2,5.5000
70697,"Action_Adventure_Children_Fantasy",3.5000,1,3.5000
70703,"Adventure",2.0000,1,2.0000
70708,"Drama_Mystery",4.5000,1,4.5000
70728,"Action_Comedy_Drama_Thriller",3.8333,3,11.5000
70862,"Documentary",3.7500,2,7.5000
70932,"Comedy",2.0000,1,2.0000
70946,"Fantasy_Horror",3.5000,3,10.5000
70984,"Comedy",3.0000,3,9.0000
70990,"Drama",2.5000,1,2.5000
70994,"Horror_Thriller",3.0000,3,9.0000
71033,"Crime_Drama_Mystery_Romance_Thriller",3.8571,7,27.0000
71057,"Adventure_Animation_Sci-Fi",3.6429,14,51.0000
71106,"Comedy_Sci-Fi",3.6000,5,18.0000
71108,"Drama_Mystery",4.5000,1,4.5000
71129,"Action_Adventure_Animation_Fantasy_Sci-Fi",3.5000,1,3.5000
71131,"Documentary",4.5000,2,9.0000
71135,"Horror_Sci-Fi_Thriller",3.4000,5,17.0000
71147,"Drama",3.0000,1,3.0000
71156,"Action_Comedy_Drama",3.3889,9,30.5000
71160,"Action_Adventure_Fantasy",3.0000,1,3.0000
71205,"Comedy_Horror_Sci-Fi_Thriller",1.0000,2,2.0000
71211,"Comedy_Crime_Drama_Thriller",3.6667,3,11.0000
71248,"Comedy",2.0000,2,4.0000
71252,"Horror_Thriller",2.6667,3,8.0000
71254,"Action_Sci-Fi_Thriller",3.4286,7,24.0000
71264,"Animation_Children_Fantasy_IMAX",3.5294,17,60.0000
71268,"Comedy_Drama",5.0000,1,5.0000
71282,"Documentary",3.6875,8,29.5000
71302,"Comedy_Sci-Fi",4.5000,1,4.5000
71304,"Drama_Horror",4.0000,3,12.0000
71327,"Drama_Romance",3.5000,1,3.5000
71341,"Horror",3.0000,1,3.0000
71379,"Horror_Thriller",3.4000,5,17.0000
71429,"Comedy_Drama",3.0000,2,6.0000
71438,"Drama",1.0000,1,1.0000
71453,"Documentary_Drama",4.0000,1,4.0000
71462,"Documentary",4.2500,4,17.0000
71464,"Comedy_Drama",3.2273,11,35.5000
71466,"Comedy_Drama",4.0000,1,4.0000
71468,"Action_Fantasy_Sci-Fi",3.5000,1,3.5000
71484,"Animation_Sci-Fi",2.5000,1,2.5000
71494,"Action_Animation_Comedy_Horror_Thriller",3.5000,1,3.5000
71500,"Comedy_Horror_Thriller",2.5000,1,2.5000
71518,"Comedy_Drama",3.1000,5,15.5000
71520,"Comedy",2.3333,6,14.0000
71530,"Action_Sci-Fi_Thriller",3.0357,14,42.5000
71535,"Action_Comedy_Horror",3.8774,53,205.5000
71550,"Comedy_Drama_Mystery",1.0000,1,1.0000
71579,"Drama_Romance",3.8333,6,23.0000
71619,"Drama",4.0000,1,4.0000
71640,"Documentary",3.5000,1,3.5000
71668,"Comedy_Romance",3.3333,3,10.0000
71732,"Comedy_Horror",2.5000,2,5.0000
71745,"Adventure_Children_Drama_Fantasy_IMAX",2.6667,12,32.0000
71810,"Action_Adventure_Drama_War",0.5000,1,0.5000
71823,"Drama_Romance",3.5000,4,14.0000
71838,"Drama_Thriller",3.0625,8,24.5000
71867,"Drama",3.0000,1,3.0000
71899,"Animation_Comedy_Drama",4.2000,10,42.0000
71902,"Drama_Romance",3.5000,1,3.5000
71910,"Action",2.5000,1,2.5000
71970,"Adventure_Comedy_Romance",4.0000,1,4.0000
71999,"Action_Adventure_Drama_Fantasy_Romance_Sci-Fi_Thriller",4.5000,1,4.5000
72011,"Drama_Romance",3.7188,32,119.0000
72104,"Animation_Drama_Mystery_Sci-Fi_Thriller",4.5000,1,4.5000
72129,"Crime_Horror_Mystery_Thriller",3.5000,3,10.5000
72142,"Action_Comedy_Drama_Romance",5.0000,1,5.0000
72165,"Action_Adventure_Comedy_Fantasy_Horror_Thriller",2.0000,1,2.0000
72167,"Action_Crime_Drama_Thriller",3.3750,4,13.5000
72171,"Action_Comedy",3.5000,2,7.0000
72178,"Comedy_Drama_War",4.5000,1,4.5000
72224,"Comedy",2.2500,2,4.5000
72226,"Adventure_Animation_Children_Comedy_Crime",4.0833,18,73.5000
72294,"Animation_Children_Drama_Fantasy_IMAX",3.0000,2,6.0000
72308,"Action_Adventure_Drama_Sci-Fi",4.2500,2,8.5000
72330,"Drama",3.5000,1,3.5000
72356,"Animation_Children_Comedy_Fantasy",4.3750,4,17.5000
72378,"Action_Drama_Sci-Fi_Thriller",2.6190,21,55.0000
72395,"Drama",3.5000,3,10.5000
72405,"Crime_Drama",2.2500,2,4.5000
72407,"Drama_Fantasy_Horror_Romance_Thriller",2.6667,9,24.0000
72424,"Action_Thriller",0.5000,1,0.5000
72479,"Drama_Romance_War",3.5000,1,3.5000
72489,"Action_Crime_Drama_Thriller",4.1667,3,12.5000
72554,"Action_Drama",4.5000,1,4.5000
72591,"Action_Thriller",3.5000,1,3.5000
72601,"Action_Adventure_Animation_Comedy_Thriller",3.0000,1,3.0000
72603,"Animation",3.0000,1,3.0000
72605,"Drama_Thriller_War",3.5000,5,17.5000
72624,"Drama",3.5000,1,3.5000
72641,"Drama",3.6774,31,114.0000
72692,"Animation_Comedy_Fantasy",5.0000,1,5.0000
72694,"Drama",2.0000,1,2.0000
72696,"Comedy",0.5000,1,0.5000
72701,"Adventure_Animation_Children_Comedy_Sci-Fi",3.0000,3,9.0000
72714,"Documentary",4.0000,1,4.0000
72720,"Drama",3.8333,3,11.5000
72731,"Crime_Drama_Fantasy_Horror_Thriller",3.1667,3,9.5000
72733,"Drama",3.8571,7,27.0000
72737,"Animation_Children_Fantasy_Musical_Romance",3.7500,12,45.0000
72874,"Action",1.0000,1,1.0000
72919,"Comedy_Crime_Drama_Romance",3.0000,1,3.0000
72921,"Fantasy_Romance",3.5000,1,3.5000
72982,"Action_Adventure_Fantasy",4.0000,1,4.0000
72998,"Action_Adventure_Sci-Fi_IMAX",3.6031,97,349.5000
73015,"Comedy_Romance",2.7500,4,11.0000
73017,"Action_Crime_Mystery_Thriller",3.8534,58,223.5000
73023,"Drama_Romance",4.1000,5,20.5000
73042,"Animation_Children_Comedy_Musical",2.6667,3,8.0000
73106,"Comedy",2.1667,3,6.5000
73160,"Comedy_Horror",2.5000,1,2.5000
73211,"Horror_Thriller",3.7500,2,7.5000
73266,"Comedy_Drama_Romance",3.0000,5,15.0000
73268,"Action_Drama_Horror_Thriller",3.4167,6,20.5000
73290,"Drama",3.5000,2,7.0000
73319,"Comedy_Romance",2.4000,5,12.0000
73321,"Action_Adventure_Drama",3.2812,16,52.5000
73323,"Action_Crime_Mystery",4.2000,5,21.0000
73344,"Crime_Drama",4.2500,4,17.0000
73386,"Crime_Drama",1.5000,1,1.5000
73431,"Comedy_Crime",2.5000,1,2.5000
73488,"Action_Horror_Thriller",2.0000,1,2.0000
73499,"Action_Adventure",3.5000,1,3.5000
73501,"Comedy",3.5000,1,3.5000
73515,"Comedy_Romance",3.5000,1,3.5000
73569,"Action_Comedy_Crime",3.7500,2,7.5000
73676,"Action_Comedy_Drama",3.0000,1,3.0000
73681,"Comedy_Drama",3.0000,1,3.0000
73741,"Action_Crime_Drama_Thriller",3.0000,1,3.0000
73804,"Adventure_Children_Comedy_Fantasy",4.0000,1,4.0000
73808,"Crime_Drama_Thriller",3.0000,1,3.0000
73822,"Comedy_Drama",5.0000,1,5.0000
73854,"Adventure_Animation_Children_Fantasy_Musical",3.8333,3,11.5000
73858,"Comedy",1.5000,1,1.5000
73876,"Action_Crime_Drama",4.0000,1,4.0000
73881,"Comedy_Drama_Romance",4.7500,2,9.5000
73929,"Action_Fantasy_Horror_Thriller",2.8333,3,8.5000
74075,"Comedy_Horror",1.0000,2,2.0000
74089,"Children_Fantasy_Musical",3.5000,1,3.5000
74095,"Animation_Fantasy_Horror_Sci-Fi",2.5000,1,2.5000
74154,"Comedy_Romance",2.5000,4,10.0000
74226,"Documentary_Drama",5.0000,1,5.0000
74228,"Drama_Horror_Mystery_Thriller",4.0000,2,8.0000
74275,"Comedy_Drama_Romance",1.5000,2,3.0000
74282,"Children_Drama_Romance",4.7500,2,9.5000
74324,"Drama",4.3750,4,17.5000
74342,"Comedy_Drama_War",4.5000,1,4.5000
74370,"Horror_Thriller",4.0000,1,4.0000
74450,"Comedy_Romance",2.6667,3,8.0000
74452,"Horror_Thriller",2.2500,2,4.5000
74458,"Drama_Mystery_Thriller",4.0224,67,269.5000
74508,"Drama_Romance",3.3333,3,10.0000
74510,"Action_Crime_Drama_Mystery_Thriller",4.2500,4,17.0000
74530,"Adventure_Fantasy",2.3571,7,16.5000
74532,"Action_Comedy_Crime",2.5000,5,12.5000
74545,"Drama_Mystery_Thriller",3.7857,7,26.5000
74553,"Animation_Fantasy",4.0000,2,8.0000
74580,"Action_Children_Comedy",2.0000,1,2.0000
74624,"Adventure_Drama_Romance",4.0000,1,4.0000
74647,"Comedy",1.0000,1,1.0000
74668,"Action_Sci-Fi",3.7500,2,7.5000
74677,"Documentary",4.0000,1,4.0000
74683,"Comedy",4.0000,1,4.0000
74685,"Action_Drama_Horror_Sci-Fi_Thriller",3.3750,4,13.5000
74688,"Drama_Romance_War",3.5000,1,3.5000
74696,"Documentary_Drama",3.0000,1,3.0000
74698,"Comedy_Fantasy",2.1667,3,6.5000
74727,"Comedy_Crime_Drama_Mystery",4.7500,2,9.5000
74750,"Horror_Thriller",3.6667,3,11.0000
74754,"Comedy_Drama_Romance",3.6667,3,11.0000
74789,"Adventure_Fantasy_IMAX",2.8750,28,80.5000
74791,"Animation",3.7500,2,7.5000
74795,"Action_Drama_Thriller_War",3.5000,9,31.5000
74851,"Action_Crime",2.5000,2,5.0000
74868,"Drama_Horror_Sci-Fi",3.0000,5,15.0000
74916,"Comedy_Drama",2.3333,3,7.0000
74946,"Comedy",3.2222,9,29.0000
74948,"Crime_Drama_Thriller",4.0000,2,8.0000
75341,"Drama_Romance",4.0000,1,4.0000
75389,"Horror_Thriller_Western",3.0000,1,3.0000
75395,"Drama_Horror_Thriller",3.2500,2,6.5000
75416,"Action_Adventure_Sci-Fi",1.5000,1,1.5000
75446,"Drama",2.5000,1,2.5000
75803,"Comedy",1.5000,1,1.5000
75805,"Action_Comedy_Romance",2.7500,6,16.5000
75813,"Comedy_Crime_Drama_Thriller",3.1667,3,9.5000
75816,"Comedy",2.0000,1,2.0000
75947,"Documentary",2.0000,1,2.0000
75985,"Action_Sci-Fi_Thriller",3.5000,6,21.0000
76030,"Horror_Thriller",0.5000,1,0.5000
76054,"Documentary_Drama",4.0000,1,4.0000
76060,"Comedy",3.5000,2,7.0000
76077,"Comedy_Sci-Fi",3.3000,15,49.5000
76091,"Crime_Drama_Mystery_Thriller",5.0000,1,5.0000
76093,"Adventure_Animation_Children_Fantasy_IMAX",3.9434,53,209.0000
76143,"Crime_Thriller",4.5000,1,4.5000
76173,"Comedy_Crime",3.7500,2,7.5000
76175,"Action_Adventure_Drama_Fantasy",2.3077,13,30.0000
76251,"Action_Comedy",3.6512,43,157.0000
76293,"Action_Comedy_Romance",3.3182,11,36.5000
76301,"Animation_Children_Comedy_Romance",4.5000,1,4.5000
76738,"Documentary",3.5000,1,3.5000
76743,"Action_Adventure_Comedy",3.5000,1,3.5000
76751,"Crime_Documentary",3.0000,1,3.0000
76763,"Drama_Musical",3.5000,1,3.5000
77177,"Documentary",4.0000,1,4.0000
77191,"Comedy",3.2500,2,6.5000
77201,"Action_Drama_War",2.5000,1,2.5000
77206,"Children_Comedy",3.5000,1,3.5000
77233,"Comedy_Documentary",3.5000,1,3.5000
77266,"Drama",3.5000,1,3.5000
77364,"Action_Adventure_Drama_Mystery_Thriller",3.0000,3,9.0000
77414,"Drama_Romance",3.5000,1,3.5000
77421,"Comedy_Drama_Romance",2.5000,1,2.5000
77427,"Horror",0.5000,1,0.5000
77455,"Comedy_Documentary",4.0385,13,52.5000
77561,"Action_Adventure_Sci-Fi_Thriller_IMAX",3.5106,47,165.0000
77667,"Action_Comedy",3.0000,1,3.0000
77688,"Comedy",4.5000,1,4.5000
77709,"Adventure_Animation_Drama",2.5000,1,2.5000
77795,"Sci-Fi",3.5000,1,3.5000
77798,"Fantasy_Horror_Thriller",1.2500,2,2.5000
77800,"Comedy_Drama",4.0000,5,20.0000
77841,"Adventure_Comedy",2.0000,1,2.0000
77846,"Crime_Drama",5.0000,1,5.0000
77866,"Action_Adventure_Drama_Romance_War",3.1667,6,19.0000
77881,"Drama_Romance",3.5000,1,3.5000
77893,"Action_Drama",4.0000,1,4.0000
77931,"Comedy_Musical_Sci-Fi_Western",4.0000,1,4.0000
78034,"Comedy_Drama_Romance",3.5000,1,3.5000
78039,"Drama_Romance",2.8000,5,14.0000
78041,"Action_Comedy",2.2500,2,4.5000
78088,"Mystery_Thriller",3.5000,4,14.0000
78103,"Drama_War",2.5000,1,2.5000
78105,"Action_Adventure_Fantasy_Romance_IMAX",2.8846,13,37.5000
78116,"Comedy_Drama",3.5000,1,3.5000
78142,"Comedy_Drama_War",4.5000,1,4.5000
78160,"Comedy",3.5000,1,3.5000
78174,"Comedy_Drama_Romance",1.0000,2,2.0000
78209,"Comedy",3.5500,10,35.5000
78218,"Drama_Thriller",3.0000,1,3.0000
78264,"Comedy_Romance",3.0000,1,3.0000
78266,"Horror_Sci-Fi_Thriller",3.5000,3,10.5000
78316,"Drama_Romance",2.8333,3,8.5000
78349,"Mystery_Thriller",3.8000,5,19.0000
78467,"Action_Drama_Thriller_Western",1.8750,4,7.5000
78469,"Action_Comedy_Thriller",3.1471,17,53.5000
78499,"Adventure_Animation_Children_Comedy_Fantasy_IMAX",4.1091,55,226.0000
78544,"Comedy",3.0000,1,3.0000
78574,"Drama_Thriller",3.4375,8,27.5000
78620,"Comedy_Western",4.5000,1,4.5000
78626,"Comedy_Horror",3.5000,1,3.5000
78637,"Adventure_Animation_Children_Comedy_Fantasy_IMAX",3.5714,7,25.0000
78703,"Comedy_Drama_Fantasy_Romance",3.7500,2,7.5000
78746,"Documentary",4.0000,1,4.0000
78772,"Fantasy_Romance_Thriller_IMAX",2.4500,10,24.5000
78836,"Drama",5.0000,2,10.0000
78893,"Action_Adventure_Fantasy",1.9167,6,11.5000
78959,"Drama",3.0000,1,3.0000
79006,"Documentary",4.5000,1,4.5000
79008,"Animation_Comedy_Fantasy",4.0000,8,32.0000
79057,"Action_Sci-Fi_Thriller",3.3000,10,33.0000
79073,"Documentary",4.0000,1,4.0000
79091,"Animation_Children_Comedy_Crime",3.6842,38,140.0000
79132,"Action_Crime_Drama_Mystery_Sci-Fi_Thriller_IMAX",4.0664,143,581.5000
79134,"Comedy",3.4500,10,34.5000
79139,"Action_Adventure_Children_Comedy_Fantasy",3.4500,10,34.5000
79185,"Action_Comedy_Romance",3.4167,6,20.5000
79224,"Action_Children_Drama",2.5000,8,20.0000
79242,"Comedy_Drama",2.9167,6,17.5000
79251,"Horror_Thriller",2.2500,2,4.5000
79259,"Drama_Thriller",2.5000,1,2.5000
79274,"Action_Animation",3.6667,3,11.0000
79293,"Action_Thriller",2.9667,15,44.5000
79299,"Comedy_Crime_Mystery",3.0000,1,3.0000
79333,"Comedy_Crime_Romance",4.0000,1,4.0000
79357,"Drama_Fantasy_Romance_Sci-Fi",4.1429,7,29.0000
79428,"Comedy",3.2857,7,23.0000
79501,"Crime_Drama_Thriller",4.0000,1,4.0000
79536,"Crime",3.0000,1,3.0000
79553,"Action",3.0000,5,15.0000
79572,"Children_Comedy",2.5000,1,2.5000
79590,"Comedy_Romance",2.5000,1,2.5000
79592,"Action_Comedy",3.2619,21,68.5000
79677,"Crime_Documentary",3.5000,1,3.5000
79684,"Comedy_Drama",4.0000,1,4.0000
79695,"Action_Adventure_Thriller",3.0588,17,52.0000
79702,"Action_Comedy_Fantasy_Musical_Romance",3.7045,44,163.0000
79798,"Drama",3.5000,2,7.0000
79868,"Fantasy_Horror_Mystery_Thriller",2.5000,1,2.5000
79879,"Action_Horror_Thriller",2.1667,3,6.5000
79895,"Action_Adventure_Fantasy_Mystery",2.5000,1,2.5000
79897,"Comedy_Drama_Mystery",5.0000,1,5.0000
79946,"Comedy_Drama",3.5000,1,3.5000
80083,"Action_Adventure_Animation_Fantasy_Sci-Fi",4.0000,1,4.0000
80094,"Horror_Thriller",4.0000,1,4.0000
80124,"Action_Crime_Drama",5.0000,1,5.0000
80126,"Drama_Thriller",2.6250,4,10.5000
80139,"Comedy_Documentary",4.1667,3,12.5000
80162,"Action_Horror_Thriller",2.5000,1,2.5000
80166,"Comedy_Romance",2.6667,6,16.0000
80219,"Action_Adventure_Comedy_Crime_Thriller",3.2500,12,39.0000
80241,"Comedy_Romance",3.1667,3,9.5000
80363,"Action_Horror_Sci-Fi_Thriller_IMAX",3.1429,7,22.0000
80454,"Drama",2.5000,1,2.5000
80463,"Drama",3.8860,57,221.5000
80478,"Documentary_Drama_Mystery",4.0000,1,4.0000
80489,"Crime_Drama_Thriller",3.9545,22,87.0000
80549,"Comedy_Romance",3.7963,27,102.5000
80551,"Drama_Romance",3.5000,2,7.0000
80553,"Drama",3.5000,1,3.5000
80572,"Comedy_Drama",4.0000,1,4.0000
80584,"Comedy_Drama_Romance",4.0000,1,4.0000
80586,"Comedy_Drama_Romance",3.8333,3,11.5000
80590,"Drama",3.1667,3,9.5000
80615,"Adventure_Animation_Fantasy_IMAX",4.0000,2,8.0000
80693,"Comedy_Drama",3.1875,8,25.5000
80727,"Comedy_Crime_Drama",3.2500,2,6.5000
80748,"Adventure_Children_Fantasy",4.0000,1,4.0000
80831,"Drama_Horror_Mystery",3.8571,7,27.0000
80834,"Animation_Fantasy",3.5000,1,3.5000
80839,"Adventure_Drama",2.5000,1,2.5000
80846,"Horror_Mystery_Thriller",3.2500,2,6.5000
80858,"Comedy",3.5000,1,3.5000
80860,"Comedy_Romance",3.0000,6,18.0000
80862,"Documentary_Mystery",3.6667,3,11.0000
80864,"Comedy_Romance",3.5000,1,3.5000
80880,"Drama_Thriller",3.2500,2,6.5000
80906,"Documentary",4.2917,12,51.5000
80917,"Drama_Sci-Fi",3.5000,1,3.5000
80969,"Drama_Romance_Sci-Fi",4.0000,3,12.0000
81018,"Animation",3.0000,3,9.0000
81087,"Drama",4.5000,1,4.5000
81132,"Action_Adventure_Comedy_Crime_Drama_Film-Noir_Horror_Mystery_Thriller_Western",3.7500,2,7.5000
81156,"Action_Comedy_Documentary",3.9167,6,23.5000
81158,"Documentary_War",3.1667,3,9.5000
81191,"Documentary",4.0000,1,4.0000
81229,"Action_Comedy",3.5000,20,70.0000
81257,"Drama",3.5000,1,3.5000
81383,"Comedy_Romance",2.5000,1,2.5000
81417,"Horror_IMAX",3.7000,5,18.5000
81456,"Drama_Romance",3.0000,2,6.0000
81512,"Drama_Fantasy",4.0000,1,4.0000
81520,"Action_Crime_Drama",4.0000,1,4.0000
81535,"Horror_Mystery_Thriller",4.5000,1,4.5000
81537,"Comedy",3.1000,10,31.0000
81562,"Adventure_Drama_Thriller",3.8333,18,69.0000
81564,"Action_Animation_Children_Comedy_Sci-Fi_IMAX",3.6000,20,72.0000
81591,"Drama_Thriller",3.6310,42,152.5000
81681,"Drama_Romance_Western",2.0000,1,2.0000
81782,"Action_Drama_Thriller",3.3571,7,23.5000
81784,"Comedy_Drama_Romance",2.6667,6,16.0000
81786,"Drama",4.0000,1,4.0000
81788,"Crime_Drama_Romance_Thriller",3.8571,7,27.0000
81791,"Drama",3.0000,1,3.0000
81819,"Drama",4.2500,2,8.5000
81831,"Comedy_Drama",4.0000,1,4.0000
81834,"Action_Adventure_Fantasy_IMAX",3.9894,47,187.5000
81845,"Drama",4.0431,58,234.5000
81847,"Animation_Children_Comedy_Fantasy_Musical_Romance_IMAX",3.9167,24,94.0000
81910,"Documentary",4.0000,2,8.0000
81932,"Drama",3.7609,23,86.5000
81949,"Comedy_Drama_Romance",3.0000,1,3.0000
82041,"Horror",4.2500,2,8.5000
82053,"Comedy_Crime",4.0000,2,8.0000
82088,"Drama",3.0000,1,3.0000
82093,"Crime_Romance",1.5000,1,1.5000
82095,"Sci-Fi_Thriller",0.5000,1,0.5000
82152,"Drama_Fantasy_Romance",3.5000,1,3.5000
82167,"Comedy_Drama_Romance",2.7857,7,19.5000
82169,"Adventure_Children_Fantasy",3.8571,7,27.0000
82202,"Drama_Thriller",2.7143,7,19.0000
82242,"Action_Comedy",4.2500,2,8.5000
82366,"Comedy_Horror_Thriller",4.5000,1,4.5000
82378,"Drama_Mystery_Thriller",3.7500,2,7.5000
82459,"Western",3.7500,28,105.0000
82461,"Action_Adventure_Sci-Fi_IMAX",3.2368,19,61.5000
82499,"Comedy_Drama_Romance",2.6667,3,8.0000
82527,"Drama",4.0000,1,4.0000
82534,"Drama",2.5000,1,2.5000
82641,"Action_Drama",3.0000,1,3.0000
82667,"Crime_Thriller",3.8750,4,15.5000
82684,"Drama",0.5000,1,0.5000
82744,"Action_Crime_Drama",5.0000,1,5.0000
82765,"Action_Adventure_Comedy_Drama_War",3.5000,1,3.5000
82767,"Drama",3.5000,1,3.5000
82848,"Comedy",3.5000,1,3.5000
82852,"Comedy",1.8333,6,11.0000
82854,"Adventure_Comedy_Fantasy",1.8333,6,11.0000
82857,"Adventure_Documentary_Western",4.5000,1,4.5000
83086,"Drama_Musical_Romance",2.5000,1,2.5000
83132,"Animation_Children_Fantasy",3.5000,4,14.0000
83134,"Comedy_Horror",3.9167,18,70.5000
83177,"Children_Comedy",1.1667,3,3.5000
83270,"Comedy_Drama",2.0000,1,2.0000
83349,"Action_Comedy_Crime_Fantasy_Thriller_IMAX",3.0000,11,33.0000
83369,"Drama",4.0000,1,4.0000
83374,"Action_Fantasy_Western",3.5000,1,3.5000
83480,"Adventure_Drama_Fantasy",3.5000,1,3.5000
83601,"Drama_Horror",0.5000,1,0.5000
83613,"Action_Sci-Fi_Thriller_Western_IMAX",3.0000,9,27.0000
83796,"Crime_Drama_Thriller",2.5000,1,2.5000
83803,"Animation_Children",4.1000,5,20.5000
83827,"Documentary",4.2500,2,8.5000
83910,"Comedy_Drama",2.5000,2,5.0000
83969,"Comedy_Drama_Romance",5.0000,1,5.0000
83976,"Comedy_Drama",4.0000,1,4.0000
84152,"Sci-Fi_Thriller",3.9500,30,118.5000
84156,"Documentary",4.5000,1,4.5000
84187,"Action_Animation_Drama_Sci-Fi",3.5000,3,10.5000
84189,"Crime_Horror_Thriller",3.7500,2,7.5000
84240,"Drama",4.0000,1,4.0000
84246,"Comedy_Romance",4.5000,1,4.5000
84273,"Documentary",5.0000,1,5.0000
84374,"Comedy_Romance",2.9286,14,41.0000
84392,"Crime_Drama_Thriller",3.6000,10,36.0000
84414,"Action_Adventure_Animation_Sci-Fi",4.2500,2,8.5000
84512,"Comedy",5.0000,1,5.0000
84523,"Action_Comedy_Drama",3.0000,1,3.0000
84553,"Comedy",4.0000,1,4.0000
84601,"Drama_Mystery_Thriller",3.3333,6,20.0000
84615,"Comedy",2.2500,2,4.5000
84637,"Adventure_Animation_Children_Comedy_Fantasy_Romance",3.0000,1,3.0000
84696,"Comedy_Thriller",4.0000,1,4.0000
84716,"Comedy_Drama_Romance",4.0000,1,4.0000
84772,"Adventure_Comedy_Sci-Fi",3.2000,15,48.0000
84799,"Horror_Sci-Fi",4.5000,1,4.5000
84844,"Crime_Drama",4.5000,1,4.5000
84847,"Comedy_Drama_Romance",2.5000,2,5.0000
84942,"Action_Fantasy_Thriller",3.7500,2,7.5000
84944,"Action_Adventure_Animation_Children_Comedy_Western",3.6176,17,61.5000
84950,"Comedy_Drama",2.5000,1,2.5000
84952,"Drama_Horror",4.0000,1,4.0000
84954,"Romance_Sci-Fi_Thriller",3.1667,21,66.5000
85020,"Action_Drama_Thriller",3.3750,4,13.5000
85022,"Comedy",3.1250,4,12.5000
85025,"Adventure_Drama",2.0000,1,2.0000
85056,"Action_Sci-Fi_Thriller_IMAX",3.1000,5,15.5000
85131,"Action_Sci-Fi_War",2.3750,4,9.5000
85179,"Adventure_Animation_Comedy_Sci-Fi",3.8333,3,11.5000
85213,"Drama",4.0000,1,4.0000
85259,"Animation_Children",4.0000,1,4.0000
85261,"Action_Adventure_Animation_Children_Comedy_Sci-Fi_IMAX",3.5000,1,3.5000
85295,"Adventure_Children_Comedy_Mystery",5.0000,1,5.0000
85316,"Animation_Children",3.5000,1,3.5000
85334,"Action_Comedy",0.5000,1,0.5000
85342,"Action_Crime_Drama",4.3571,7,30.5000
85354,"Action_Crime",3.5000,3,10.5000
85367,"Comedy_Romance",3.2143,7,22.5000
85394,"Documentary",3.0000,1,3.0000
85397,"Fantasy_Horror_Mystery_Thriller",3.5000,2,7.0000
85399,"Comedy",1.0000,1,1.0000
85401,"Action_Comedy_Drama",2.9000,5,14.5000
85412,"Fantasy_Horror",3.7500,2,7.5000
85414,"Action_Drama_Mystery_Sci-Fi_Thriller",3.6029,34,122.5000
85438,"Drama_Romance",3.0000,1,3.0000
85510,"Action_Fantasy_Thriller_IMAX",3.1250,12,37.5000
85736,"Adventure_Animation_Children_Sci-Fi",4.5000,3,13.5000
85774,"Documentary",3.7500,6,22.5000
85780,"Animation_Comedy_Sci-Fi",3.5833,6,21.5000
85788,"Fantasy_Horror_Thriller",2.6667,3,8.0000
85796,"Action_Adventure_Crime_Thriller",2.3750,4,9.5000
85881,"Comedy_Drama",3.7500,6,22.5000
85885,"Drama_Romance",2.7500,2,5.5000
86000,"Comedy_Drama",4.0000,1,4.0000
86014,"Comedy",3.5000,1,3.5000
86028,"Comedy_Crime",2.0000,1,2.0000
86059,"Animation_Children_Comedy",2.7500,2,5.5000
86066,"Comedy",4.0000,1,4.0000
86068,"Horror_Thriller",0.5000,1,0.5000
86142,"Action",4.0000,4,16.0000
86190,"Action_Adventure_Mystery_Thriller",3.3182,11,36.5000
86237,"Documentary",5.0000,1,5.0000
86279,"Documentary",3.5000,1,3.5000
86286,"Animation_Children_Comedy_Horror",2.0000,1,2.0000
86290,"Comedy_Documentary",4.0000,3,12.0000
86293,"Comedy",3.0000,6,18.0000
86295,"Comedy_Horror_Mystery_Thriller",2.6667,3,8.0000
86298,"Adventure_Animation_Children_Comedy",3.1250,8,25.0000
86320,"Drama_Sci-Fi",3.0714,7,21.5000
86332,"Action_Adventure_Drama_Fantasy_IMAX",3.5147,34,119.5000
86345,"Comedy",4.0556,9,36.5000
86347,"Comedy",3.2857,7,23.0000
86355,"Drama_Mystery_Sci-Fi",2.0000,1,2.0000
86377,"Comedy",4.0000,7,28.0000
86487,"Drama",4.5000,1,4.5000
86504,"Documentary",4.3000,5,21.5000
86548,"Drama_Romance",3.3750,4,13.5000
86593,"Adventure_Documentary",2.5000,1,2.5000
86628,"Action_Crime",4.0000,2,8.0000
86644,"Action_Crime_Drama_Thriller_IMAX",3.0500,10,30.5000
86668,"Documentary",5.0000,1,5.0000
86721,"Animation_Drama_Fantasy",5.0000,1,5.0000
86781,"Drama_Mystery_War",4.4000,5,22.0000
86815,"Action_Drama",3.5000,1,3.5000
86817,"Comedy_Drama_Romance",3.2500,2,6.5000
86833,"Comedy",3.7619,21,79.0000
86835,"Action_Horror_Sci-Fi_Thriller",3.0000,3,9.0000
86864,"Adventure_Fantasy_Sci-Fi",3.0000,1,3.0000
86880,"Action_Adventure_Fantasy_IMAX",3.2292,24,77.5000
86882,"Comedy_Fantasy_Romance",3.5600,25,89.0000
86892,"Action_Crime_Thriller",4.5000,3,13.5000
86898,"Drama",4.0000,2,8.0000
86911,"Comedy",3.2667,15,49.0000
86922,"Comedy",4.0000,1,4.0000
86960,"Thriller",2.0000,1,2.0000
87028,"Drama_Thriller",2.0000,1,2.0000
87192,"Action_Comedy_Sci-Fi",3.5000,6,21.0000
87194,"Adventure_Comedy_Drama",3.5000,2,7.0000
87197,"Action_Comedy",3.0000,1,3.0000
87222,"Action_Adventure_Animation_Children_Comedy_IMAX",3.3235,17,56.5000
87232,"Action_Adventure_Sci-Fi_Thriller_War",3.7907,43,163.0000
87234,"Comedy_Drama_Romance",4.1667,3,12.5000
87287,"Documentary",4.0000,1,4.0000
87298,"Comedy_Drama",2.6667,3,8.0000
87304,"Drama",3.6250,4,14.5000
87306,"Mystery_Sci-Fi_Thriller_IMAX",3.5952,21,75.5000
87413,"Comedy_Drama",1.7500,2,3.5000
87430,"Action_Adventure_Sci-Fi",2.3500,10,23.5000
87444,"Comedy",2.5000,2,5.0000
87483,"Comedy",2.7000,5,13.5000
87485,"Comedy",2.8889,9,26.0000
87520,"Action_Adventure_Sci-Fi_War_IMAX",2.3636,11,26.0000
87522,"Comedy_Drama_Romance",2.7500,2,5.5000
87529,"Action_Adventure_Comedy_Fantasy",3.1111,9,28.0000
87660,"Drama",4.5000,1,4.5000
87785,"Action_Crime_Thriller",2.7500,2,5.5000
87834,"Animation_Comedy_Drama",5.0000,1,5.0000
87867,"Comedy",2.7500,4,11.0000
87869,"Comedy_Crime",3.4375,24,82.5000
87876,"Adventure_Animation_Children_Comedy_IMAX",3.1667,3,9.5000
87960,"Documentary",3.0000,1,3.0000
88069,"Comedy_Crime",4.0000,1,4.0000
88094,"Documentary",3.0000,1,3.0000
88108,"Adventure_Comedy_Romance",3.0000,1,3.0000
88125,"Action_Adventure_Drama_Fantasy_Mystery_IMAX",3.9100,50,195.5000
88129,"Crime_Drama_Film-Noir_Thriller",3.7656,32,120.5000
88140,"Action_Adventure_Sci-Fi_Thriller_War",3.5469,32,113.5000
88163,"Comedy_Drama_Romance",3.9839,31,123.5000
88179,"Drama_Romance",3.5000,1,3.5000
88235,"Comedy_Crime",3.6250,4,14.5000
88267,"Animation_Children_Comedy",3.0000,1,3.0000
88272,"Horror",3.5000,2,7.0000
88327,"Action_Drama_War",3.0000,1,3.0000
88345,"Animation_Comedy",4.0000,1,4.0000
88356,"Animation_Children_Comedy",1.8750,4,7.5000
88405,"Comedy_Romance",3.0500,20,61.0000
88448,"Comedy_Drama",5.0000,1,5.0000
88515,"Action_Crime_Thriller",3.0000,1,3.0000
88593,"Crime_Drama_Thriller",2.5000,1,2.5000
88672,"Comedy",3.2500,2,6.5000
88697,"Drama",2.5000,1,2.5000
88699,"Action_Sci-Fi_Thriller",3.5000,2,7.0000
88744,"Action_Drama_Sci-Fi_Thriller",3.4630,27,93.5000
88746,"Comedy",3.5000,2,7.0000
88785,"Comedy",2.8500,10,28.5000
88810,"Drama",3.8333,21,80.5000
88812,"Action_Comedy_Crime",2.6667,6,16.0000
88911,"Comedy",3.0000,1,3.0000
88932,"Horror_Thriller_IMAX",4.5000,1,4.5000
88954,"Comedy",3.2500,2,6.5000
89028,"Horror_Thriller",3.0000,2,6.0000
89030,"Comedy_Horror",3.2500,2,6.5000
89039,"Drama_Romance_Sci-Fi",4.5000,1,4.5000
89047,"Drama",4.0000,1,4.0000
89072,"Horror",4.0000,1,4.0000
89085,"Drama_Thriller",2.5000,1,2.5000
89087,"Action_Adventure_Drama_Thriller",2.5000,6,15.0000
89090,"Documentary",4.5000,1,4.5000
89118,"Drama",3.0000,4,12.0000
89190,"Action_Adventure_Fantasy",1.7500,2,3.5000
89208,"Horror_Thriller",3.5000,1,3.5000
89281,"Romance_Thriller",3.5000,1,3.5000
89305,"Adventure_Comedy",3.6667,3,11.0000
89343,"Action_Crime_Horror_Thriller",3.0000,1,3.0000
89386,"Documentary_Musical",0.5000,1,0.5000
89388,"Comedy",1.5000,1,1.5000
89427,"Horror_Thriller",1.5000,1,1.5000
89470,"Sci-Fi_Thriller_IMAX",3.7083,12,44.5000
89492,"Drama",3.8846,26,101.0000
89580,"Drama",4.0000,1,4.0000
89582,"Drama_Thriller",4.5000,2,9.0000
89586,"Adventure_Animation_Children",3.5000,1,3.5000
89678,"Drama_Romance",4.0000,1,4.0000
89745,"Action_Adventure_Sci-Fi_IMAX",3.8696,69,267.0000
89753,"Drama_Film-Noir_Thriller",3.8125,8,30.5000
89759,"Drama",4.3333,3,13.0000
89761,"Drama_Thriller",3.0000,2,6.0000
89774,"Drama",3.7273,11,41.0000
89804,"Drama",3.2222,9,29.0000
89837,"Horror_Mystery_Thriller",4.5000,1,4.5000
89840,"Action_Thriller",2.8333,3,8.5000
89862,"Action_Drama_Romance",3.5000,1,3.5000
89864,"Comedy_Drama",3.6316,19,69.0000
89898,"Comedy_Drama_Sci-Fi",3.5000,1,3.5000
89904,"Comedy_Drama_Romance",4.0455,11,44.5000
89939,"Comedy",3.7500,2,7.5000
89945,"Horror_Sci-Fi",3.0000,1,3.0000
90057,"Drama",3.7500,2,7.5000
90243,"Action_Drama",3.5000,1,3.5000
90245,"Documentary",4.0000,1,4.0000
90249,"Action_Drama_Sci-Fi_IMAX",3.0000,6,18.0000
90343,"Comedy_Drama_Musical",2.7500,2,5.5000
90345,"Horror_Mystery_Sci-Fi_Thriller",3.5000,4,14.0000
90353,"Drama",4.0000,1,4.0000
90357,"Drama",3.5000,1,3.5000
90374,"Drama_Thriller",3.7500,2,7.5000
90376,"Drama_Thriller",3.5000,4,14.0000
90384,"Action_Thriller_War",2.0000,1,2.0000
90403,"Action_Adventure",3.1667,3,9.5000
90405,"Crime_Sci-Fi_Thriller",3.3929,14,47.5000
90428,"Drama",3.0000,1,3.0000
90430,"Comedy_Drama",4.0000,4,16.0000
90439,"Drama_Thriller",3.7857,7,26.5000
90469,"Horror",3.5000,2,7.0000
90471,"Drama",3.0000,2,6.0000
90522,"Adventure_Comedy_Thriller",3.0000,6,18.0000
90524,"Action_Drama_Mystery_Thriller",3.5000,1,3.5000
90528,"Crime_Drama_Thriller",3.5000,1,3.5000
90531,"Drama",3.7500,4,15.0000
90576,"Comedy_Romance",4.5000,1,4.5000
90600,"Action_Crime_Thriller",3.6000,5,18.0000
90603,"Action_Animation_Crime",3.6667,3,11.0000
90630,"Documentary",3.5000,1,3.5000
90647,"Adventure_Animation_Comedy_Fantasy_IMAX",3.5625,8,28.5000
90717,"Action_Comedy_Crime",3.5000,4,14.0000
90719,"Drama",2.5000,1,2.5000
90738,"Action_Crime_Drama_Mystery_Thriller",1.5000,1,1.5000
90746,"Action_Animation_Mystery_IMAX",3.5000,12,42.0000
90769,"Documentary",4.0000,1,4.0000
90809,"Drama",3.0000,1,3.0000
90863,"Documentary",4.0000,1,4.0000
90866,"Children_Drama_Mystery",3.7500,18,67.5000
90888,"Action_Drama_Fantasy",2.6667,3,8.0000
90890,"Comedy",2.3000,5,11.5000
90943,"Documentary",5.0000,1,5.0000
90945,"Adventure_Crime_Drama",3.0000,1,3.0000
91077,"Comedy_Drama",4.0000,11,44.0000
91079,"Drama_Romance",2.5000,2,5.0000
91094,"Children_Comedy_Musical",2.6000,10,26.0000
91104,"Adventure_Drama_Fantasy_Romance",2.2143,7,15.5000
91126,"Drama_War",3.0000,3,9.0000
91128,"Comedy_Drama_Thriller",3.5833,6,21.5000
91233,"Animation_Comedy_Sci-Fi",4.0000,1,4.0000
91261,"Drama_Musical_Romance",3.5000,1,3.5000
91266,"Children_Comedy_Musical_Romance",2.5000,1,2.5000
91273,"Action_Drama_Fantasy",1.5000,1,1.5000
91323,"Comedy",2.9000,5,14.5000
91325,"Drama",2.7500,2,5.5000
91337,"Comedy_Romance",4.0000,1,4.0000
91353,"Adventure_Animation_Children_Comedy",3.7500,2,7.5000
91355,"Adventure_Animation_Children_Comedy_Fantasy",5.0000,1,5.0000
91386,"Animation_Children_Comedy_IMAX",5.0000,1,5.0000
91414,"Animation_Children_Comedy_Drama",0.5000,1,0.5000
91470,"Action_Drama",3.0000,2,6.0000
91483,"Action_Crime_Film-Noir",1.5000,1,1.5000
91485,"Action_Adventure",3.5000,10,35.0000
91488,"Animation_Children_Musical",3.7500,2,7.5000
91500,"Action_Adventure_Drama_Sci-Fi_Thriller",3.4352,54,185.5000
91529,"Action_Adventure_Crime_IMAX",3.9934,76,303.5000
91535,"Action_Adventure_Drama_Thriller_IMAX",3.1389,18,56.5000
91542,"Action_Adventure_Comedy_Crime_Mystery_Thriller",3.7632,38,143.0000
91571,"Drama_Thriller",2.5000,1,2.5000
91622,"Comedy_Drama",2.2500,2,4.5000
91628,"Comedy_Romance",2.0000,3,6.0000
91630,"Action_Adventure_Thriller_IMAX",3.6591,22,80.5000
91653,"Comedy_Drama",3.3000,5,16.5000
91658,"Drama_Thriller",3.4881,42,146.5000
91660,"Action_Horror_Sci-Fi_Thriller",2.5000,2,5.0000
91666,"Comedy_Drama_Romance",4.0000,1,4.0000
91671,"Animation_Comedy",1.0000,2,2.0000
91688,"Comedy_Thriller",1.5000,1,1.5000
91690,"Comedy",3.6667,3,11.0000
91784,"Comedy_Drama_Fantasy",4.5000,1,4.5000
91842,"Action_Crime_Drama_Thriller",3.0000,2,6.0000
91860,"Documentary",4.0000,1,4.0000
91869,"Documentary",3.5000,1,3.5000
91873,"Comedy_Musical",1.5000,1,1.5000
91890,"Drama",3.0000,1,3.0000
91935,"Drama",2.5000,1,2.5000
91947,"Comedy_Horror",4.5000,1,4.5000
91974,"Action_Fantasy_Horror_IMAX",3.8000,5,19.0000
91976,"Action_Drama",2.9167,6,17.5000
91978,"Crime_Thriller",3.1667,3,9.5000
91981,"Drama",2.5000,1,2.5000
92008,"Action_Thriller",2.8333,3,8.5000
92046,"Comedy",3.0000,1,3.0000
92048,"Drama_Thriller",3.2500,2,6.5000
92094,"Drama",3.5000,1,3.5000
92192,"Horror_Sci-Fi_Thriller",2.0000,1,2.0000
92198,"Action_Drama_Thriller",2.0000,1,2.0000
92234,"Action_Adventure_Drama_War",1.5000,1,1.5000
92243,"Drama_War",4.5000,1,4.5000
92259,"Comedy_Drama",4.1081,37,152.0000
92264,"Action_Comedy_Crime",2.0000,2,4.0000
92309,"Horror_Thriller",2.7500,2,5.5000
92348,"Adventure_Animation_Children_Comedy_Fantasy_Romance",4.0000,1,4.0000
92391,"Horror",3.1667,3,9.5000
92420,"Action_Sci-Fi_Thriller",3.3750,8,27.0000
92422,"Drama_Horror_Thriller",3.7500,2,7.5000
92427,"Comedy",1.0000,1,1.0000
92439,"Drama_Romance",3.0000,2,6.0000
92475,"Documentary",4.2500,2,8.5000
92494,"Comedy_Documentary",5.0000,1,5.0000
92507,"Action_Crime_Mystery_Thriller",3.3750,4,13.5000
92509,"Drama_Romance",2.6667,3,8.0000
92535,"Comedy",4.3000,10,43.0000
92637,"Crime_Drama_Fantasy",3.5000,1,3.5000
92643,"Children_Comedy_Drama",4.5000,2,9.0000
92665,"Comedy_Drama_Romance",2.5000,1,2.5000
92674,"Drama_Musical",2.5000,1,2.5000
92681,"Action_Adventure_Comedy_Sci-Fi_IMAX",0.5000,1,0.5000
92694,"Drama_Romance_Sci-Fi",4.2500,2,8.5000
92730,"Children_Fantasy",2.0000,1,2.0000
92760,"Horror_Sci-Fi",3.5000,1,3.5000
92938,"Action_Fantasy_Thriller",1.6000,5,8.0000
92954,"Drama",3.5000,1,3.5000
93006,"Comedy_Musical",4.2500,2,8.5000
93008,"Comedy_Musical",5.0000,1,5.0000
93022,"Comedy_Crime",5.0000,1,5.0000
93040,"Documentary_War",4.0000,1,4.0000
93114,"Comedy_Drama",3.0000,1,3.0000
93134,"Comedy",3.5000,1,3.5000
93139,"Action_Adventure_Horror",1.5000,1,1.5000
93193,"Crime_Thriller_Western",3.0000,1,3.0000
93208,"Animation_Children",2.0000,1,2.0000
93242,"Drama_Thriller",1.5000,1,1.5000
93270,"Comedy",2.0625,8,16.5000
93272,"Animation_Fantasy_Musical_IMAX",3.1000,5,15.5000
93287,"Comedy",3.7500,4,15.0000
93297,"Action_Thriller_War",3.7500,2,7.5000
93320,"Comedy_Crime",5.0000,1,5.0000
93326,"Action_Comedy_Romance",2.6364,11,29.0000
93363,"Action_Adventure_Sci-Fi_IMAX",3.0909,11,34.0000
93443,"Comedy_Drama",3.2500,4,13.0000
93502,"Drama_Thriller",2.5000,1,2.5000
93510,"Action_Comedy_Crime",3.8654,26,100.5000
93512,"Comedy_Drama",4.0000,1,4.0000
93563,"Action_Sci-Fi_Thriller",3.1667,3,9.5000
93598,"Crime_Drama_Thriller",2.5000,1,2.5000
93610,"Action_Adventure_Drama",3.0000,1,3.0000
93721,"Documentary",4.1000,5,20.5000
93723,"Comedy_Romance",2.2500,2,4.5000
93740,"Comedy_Drama_Romance",1.5000,1,1.5000
93766,"Action_Adventure_Fantasy_IMAX",2.6250,4,10.5000
93790,"Drama",4.0000,1,4.0000
93805,"Action_Comedy_Sci-Fi",3.7500,2,7.5000
93819,"Horror",3.5000,1,3.5000
93831,"Comedy",2.6250,4,10.5000
93838,"Action_Crime",4.3333,9,39.0000
93840,"Comedy_Horror_Sci-Fi_Thriller",4.0227,22,88.5000
93855,"Comedy_Drama",4.5000,1,4.5000
93980,"Comedy",1.2500,2,2.5000
93982,"Mystery_Thriller",2.0000,1,2.0000
93988,"Drama_Romance",4.5000,1,4.5000
94011,"Action_Thriller",1.5000,1,1.5000
94015,"Adventure_Comedy_Fantasy",3.0000,4,12.0000
94018,"Action_Sci-Fi_Thriller_IMAX",2.3333,3,7.0000
94070,"Comedy_Drama",3.8750,4,15.5000
94122,"Documentary",2.0000,1,2.0000
94130,"Documentary",3.5000,2,7.0000
94150,"Comedy_Romance",4.0000,2,8.0000
94160,"Action_Animation_Fantasy",3.0000,1,3.0000
94262,"Sci-Fi_Thriller",3.0000,1,3.0000
94266,"Comedy_Romance",2.5000,4,10.0000
94323,"Comedy",2.5000,2,5.0000
94325,"Drama",4.0000,1,4.0000
94405,"Action_Crime_Thriller",3.5000,2,7.0000
94478,"Comedy_Horror_IMAX",2.5000,6,15.0000
94494,"Drama_Thriller",2.5000,1,2.5000
94503,"Comedy_Romance",3.6667,3,11.0000
94661,"Comedy_Drama",4.0000,1,4.0000
94677,"Comedy",3.5588,17,60.5000
94735,"Documentary",4.0000,1,4.0000
94777,"Action_Comedy_Sci-Fi_IMAX",3.2778,18,59.0000
94780,"Action_Adventure_Drama",2.8333,6,17.0000
94799,"Drama_Mystery_Sci-Fi",3.5000,1,3.5000
94810,"Drama_Fantasy_Sci-Fi",5.0000,1,5.0000
94833,"Adventure_Animation_Children_Comedy",3.3333,3,10.0000
94864,"Action_Horror_Sci-Fi_IMAX",3.2963,27,89.0000
94867,"Horror_Mystery_Thriller",3.5000,1,3.5000
94896,"Comedy_Crime_Drama",3.5000,2,7.0000
94919,"Drama_Thriller",2.5000,1,2.5000
94931,"Drama_Romance",3.5000,1,3.5000
94953,"Comedy",3.0000,5,15.0000
94959,"Comedy_Drama_Romance",3.7759,29,109.5000
94985,"Action_Crime_Drama_Thriller",3.8333,3,11.5000
95004,"Action_Animation",4.0000,1,4.0000
95067,"Comedy_Drama",2.8333,3,8.5000
95088,"Comedy_Drama",3.7500,6,22.5000
95105,"Adventure_Animation_Children_Comedy_IMAX",3.3889,9,30.5000
95135,"Comedy_Drama",4.0000,1,4.0000
95145,"Action_Adventure_Animation_Children",3.5000,1,3.5000
95147,"Action_Adventure_Animation_Children",3.2500,2,6.5000
95149,"Action_Animation_Fantasy",5.0000,1,5.0000
95163,"Action_Adventure_Animation_Children",3.5000,1,3.5000
95165,"Action_Adventure_Animation_Sci-Fi_Thriller",4.0000,1,4.0000
95167,"Action_Adventure_Animation_Children",3.4667,30,104.0000
95170,"Animation_Children_Fantasy_Musical",4.0000,1,4.0000
95175,"Drama",5.0000,1,5.0000
95182,"Action_Adventure_Animation_Sci-Fi",3.0000,2,6.0000
95193,"Adventure_Animation_Children",2.0000,1,2.0000
95199,"Comedy_Drama_Romance",3.0000,1,3.0000
95201,"Comedy",3.0000,1,3.0000
95207,"Action_Fantasy_Horror_Thriller",2.7500,6,16.5000
95218,"Documentary",3.5000,1,3.5000
95307,"Comedy_Drama_Musical_IMAX",2.7500,4,11.0000
95309,"Comedy_Drama_Romance",4.1667,3,12.5000
95311,"Animation_Children_Comedy_Fantasy",5.0000,1,5.0000
95313,"Adventure_Animation_Children_Comedy",4.5000,1,4.5000
95377,"Animation_Comedy_Musical",3.8333,3,11.5000
95441,"Comedy_Fantasy",3.2857,21,69.0000
95449,"Drama_Romance",2.7000,5,13.5000
95473,"Action_Adventure_Animation",4.0000,1,4.0000
95475,"Action_Adventure_Animation",4.0000,2,8.0000
95497,"Action_Adventure_Animation",3.7500,2,7.5000
95499,"Action_Adventure_Animation",4.0000,1,4.0000
95508,"Crime_Drama_Thriller",3.5000,1,3.5000
95510,"Action_Adventure_Sci-Fi_IMAX",3.2500,30,97.5000
95519,"Action_Adventure_Animation_Fantasy",4.0000,1,4.0000
95543,"Adventure_Animation_Comedy",2.9167,6,17.5000
95558,"Drama_Fantasy",3.3571,7,23.5000
95583,"Crime_Drama_Thriller",2.7500,2,5.5000
95624,"Drama",3.0000,1,3.0000
95633,"Horror",4.5000,1,4.5000
95654,"Animation_Children",4.1667,3,12.5000
95690,"Comedy_Thriller",4.5000,1,4.5000
95717,"Adventure",2.0000,1,2.0000
95720,"Comedy_Sci-Fi",3.0000,9,27.0000
95738,"Children_Musical_Mystery",3.0000,1,3.0000
95744,"Comedy",2.5000,1,2.5000
95761,"Crime_Thriller",4.5000,1,4.5000
95771,"Action_Adventure_Animation",4.0000,1,4.0000
95780,"Action_Adventure_Animation",4.0000,1,4.0000
95796,"Action_Horror_Sci-Fi_Thriller",0.5000,1,0.5000
95839,"Drama_Fantasy",3.0000,1,3.0000
95843,"Comedy_Fantasy_Romance",5.0000,1,5.0000
95858,"Animation_Children_Comedy",3.9000,5,19.5000
95873,"Comedy_Fantasy_Romance",3.5000,4,14.0000
95875,"Action_Sci-Fi_Thriller",3.1875,8,25.5000
95939,"Comedy_Drama",4.0000,1,4.0000
95949,"Comedy",3.5000,1,3.5000
95965,"Action_Adventure_Animation",4.0000,1,4.0000
96004,"Action_Adventure_Animation",3.2500,2,6.5000
96007,"Action_Adventure_Animation",2.0000,1,2.0000
96020,"Drama",3.6667,3,11.0000
96079,"Action_Adventure_Thriller_IMAX",3.8100,50,190.5000
96084,"Drama",4.5000,1,4.5000
96110,"Comedy",3.4444,9,31.0000
96114,"Crime_Thriller",2.0000,1,2.0000
96121,"Comedy_Drama",1.0000,1,1.0000
96150,"Documentary",2.0000,1,2.0000
96281,"Adventure_Animation_Comedy",3.5000,2,7.0000
96283,"Children_Comedy",3.0000,1,3.0000
96373,"Drama",4.5000,1,4.5000
96411,"Documentary",4.0000,1,4.0000
96417,"Action_Thriller",3.2000,5,16.0000
96430,"Comedy_Drama_Fantasy",5.0000,1,5.0000
96432,"Crime_Drama",3.6250,4,14.5000
96448,"Comedy_Horror",2.1667,3,6.5000
96471,"Crime_Drama_Mystery",3.0000,1,3.0000
96488,"Documentary",4.2500,4,17.0000
96518,"Drama_Thriller",3.0000,1,3.0000
96520,"Drama_Mystery",2.0000,1,2.0000
96530,"Comedy_Romance",2.5000,1,2.5000
96563,"Documentary",4.0000,1,4.0000
96567,"Drama_Romance",4.0000,1,4.0000
96588,"Comedy_Musical",3.6250,20,72.5000
96606,"Documentary",3.8333,3,11.5000
96608,"Animation_Comedy_Sci-Fi",5.0000,1,5.0000
96610,"Action_Crime_Sci-Fi",3.6406,32,116.5000
96616,"Comedy",2.5000,3,7.5000
96655,"Comedy_Drama_Sci-Fi",3.0000,3,9.0000
96691,"Action_Horror_Sci-Fi_IMAX",3.7500,2,7.5000
96726,"Comedy_Romance",1.5000,1,1.5000
96728,"Drama",3.9167,6,23.5000
96737,"Action_Sci-Fi",3.7143,14,52.0000
96811,"Crime_Drama_Thriller",3.9167,6,23.5000
96815,"Horror_Thriller",2.7500,2,5.5000
96821,"Drama_Romance",3.8250,20,76.5000
96829,"Drama",4.3000,10,43.0000
96832,"Drama_Fantasy_Musical_Mystery_Sci-Fi",5.0000,1,5.0000
96861,"Action_Crime_Drama_Thriller",3.2857,7,23.0000
96917,"Horror_Thriller",4.0000,1,4.0000
96935,"Comedy_Fantasy_Romance",5.0000,1,5.0000
96945,"Comedy_Drama_Romance",3.5000,1,3.5000
96964,"Crime_Drama_Mystery",1.5000,1,1.5000
96975,"Comedy_Drama_Romance",3.5000,1,3.5000
97024,"Drama_Romance",0.5000,1,0.5000
97168,"Documentary",3.5000,2,7.0000
97172,"Animation_Comedy_Horror_IMAX",2.5000,2,5.0000
97188,"Horror_Thriller",4.0000,1,4.0000
97194,"Documentary",1.0000,1,1.0000
97225,"Animation_Children_Comedy",3.4091,11,37.5000
97230,"Documentary",3.0000,1,3.0000
97285,"Action_Crime_Mystery",3.5000,1,3.5000
97304,"Drama_Thriller",3.9821,28,111.5000
97306,"Comedy_Crime",3.4667,15,52.0000
97328,"Comedy_Drama",3.0000,1,3.0000
97470,"Action_Drama_Thriller",1.2500,2,2.5000
97643,"Horror_Thriller",3.0000,2,6.0000
97665,"Adventure_Comedy",2.5000,1,2.5000
97701,"Horror_IMAX",3.0000,1,3.0000
97742,"Action_Crime_Mystery_Thriller",1.5000,1,1.5000
97752,"Drama_Sci-Fi_IMAX",3.7368,19,71.0000
97757,"Action_Adventure_Comedy_Documentary_Fantasy",4.0000,1,4.0000
97785,"Horror_Mystery_Thriller",3.0000,1,3.0000
97836,"Action_Comedy",2.5714,7,18.0000
97858,"Comedy_Drama",2.0000,1,2.0000
97860,"Crime_Drama_Thriller",3.1250,4,12.5000
97866,"Documentary",4.7500,2,9.5000
97870,"Drama",4.0000,1,4.0000
97904,"Comedy_Drama",4.0000,1,4.0000
97913,"Animation_Comedy",3.7500,22,82.5000
97921,"Comedy_Drama",3.7167,30,111.5000
97923,"Drama",3.5000,9,31.5000
97936,"Drama",3.0000,1,3.0000
97938,"Adventure_Drama_IMAX",3.6290,31,112.5000
97950,"Action_Adventure_Crime",2.5000,1,2.5000
97988,"Horror_Sci-Fi_Thriller",2.5000,1,2.5000
98061,"Children_Crime_Drama",3.5000,1,3.5000
98083,"Comedy_Documentary",4.0000,2,8.0000
98122,"Documentary",3.0000,2,6.0000
98124,"Action_Animation_Sci-Fi",3.9286,7,27.5000
98154,"Drama_War",4.5000,4,18.0000
98160,"Comedy",1.5000,1,1.5000
98175,"Comedy_Horror_Romance",1.5000,1,1.5000
98203,"Adventure_Drama_Fantasy_Romance_IMAX",1.8750,4,7.5000
98230,"Comedy_Drama_Romance",3.5000,1,3.5000
98239,"Action_War",2.2500,2,4.5000
98243,"Adventure_Animation_Children_Fantasy_IMAX",3.7917,12,45.5000
98279,"Comedy",4.0000,2,8.0000
98296,"Crime_Drama_Thriller",1.5000,1,1.5000
98361,"Drama_Fantasy_Thriller",4.0000,1,4.0000
98491,"Animation_Comedy_Romance",4.3750,8,35.0000
98499,"Action_Comedy",3.0000,2,6.0000
98503,"Action_Comedy",3.0000,1,3.0000
98585,"Drama",3.5000,5,17.5000
98604,"Animation_Drama_Romance",4.5000,1,4.5000
98607,"Action_Animation_Sci-Fi",4.5000,1,4.5000
98623,"Action_Comedy_Crime",3.0000,2,6.0000
98633,"Action_Comedy",3.5000,1,3.5000
98697,"Adventure_Comedy",2.5000,1,2.5000
98799,"Animation_Comedy",2.5000,1,2.5000
98809,"Adventure_Fantasy_IMAX",3.8125,40,152.5000
98836,"Comedy_Drama",2.0000,1,2.0000
98908,"Comedy_Romance",1.5000,1,1.5000
98961,"Action_Drama_Thriller",4.1071,14,57.5000
99005,"Action_Crime_Drama",1.5000,1,1.5000
99007,"Comedy_Horror_Romance",3.5000,14,49.0000
99030,"Comedy_Drama",4.0000,1,4.0000
99087,"Comedy_Romance",3.0000,1,3.0000
99106,"Comedy",2.5000,3,7.5000
99112,"Action_Crime_Thriller",3.4167,12,41.0000
99114,"Action_Drama_Western",3.9437,71,280.0000
99117,"Drama",3.1250,8,25.0000
99122,"Comedy_Horror",3.5000,1,3.5000
99130,"Comedy_Horror",3.5000,1,3.5000
99145,"Drama_Thriller",3.6667,3,11.0000
99149,"Drama_Musical_Romance_IMAX",3.5000,7,24.5000
99191,"Horror",4.0000,1,4.0000
99415,"Comedy",2.0000,1,2.0000
99437,"Comedy_Fantasy_Horror",4.0000,2,8.0000
99532,"Drama_Romance",2.2500,2,4.5000
99574,"Drama",3.0000,1,3.0000
99636,"Comedy_Drama",5.0000,1,5.0000
99638,"Comedy",3.0000,1,3.0000
99721,"Horror_Mystery_Thriller",1.5000,1,1.5000
99728,"Action_Crime_Drama",3.3333,3,10.0000
99750,"Crime_Drama_Thriller",3.5000,1,3.5000
99764,"Animation_Comedy_Drama_Fantasy_Sci-Fi",4.2500,2,8.5000
99813,"Action_Animation",3.8750,8,31.0000
99846,"Documentary",3.0000,1,3.0000
99853,"Comedy_Romance_Sci-Fi",4.0000,1,4.0000
99910,"Action_Crime_Thriller",3.2500,2,6.5000
99917,"Romance_Sci-Fi_Thriller",3.1667,3,9.5000
99992,"Crime_Drama_Thriller",3.0000,1,3.0000
100044,"Documentary",4.0000,1,4.0000
100068,"Comedy",3.5000,1,3.5000
100083,"Comedy",3.5000,3,10.5000
100106,"Documentary",3.5000,1,3.5000
100159,"Comedy",4.5000,1,4.5000
100163,"Action_Fantasy_Horror_IMAX",2.9000,5,14.5000
100194,"Comedy",4.5000,1,4.5000
100226,"Comedy_Drama",1.5000,1,1.5000
100277,"Drama_Romance",4.0000,1,4.0000
100302,"Drama_Romance_Sci-Fi",3.0000,1,3.0000
100304,"Action_Thriller",3.0000,1,3.0000
100306,"Drama_Horror",3.5000,1,3.5000
100326,"Comedy_Crime",2.5000,1,2.5000
100383,"Crime_Drama_Mystery_Thriller",3.9167,6,23.5000
100390,"Comedy_Crime",2.8750,4,11.5000
100397,"Horror",3.5000,1,3.5000
100487,"Drama_Fantasy_Romance",2.0000,1,2.0000
100498,"Action_Crime_Thriller_IMAX",2.0833,6,12.5000
100507,"Comedy",3.6250,4,14.5000
100527,"Drama_Mystery_Romance",4.0000,1,4.0000
100553,"Documentary",4.5000,2,9.0000
100556,"Documentary",5.0000,1,5.0000
100579,"Action_Sci-Fi_Thriller",4.0000,1,4.0000
100611,"Adventure_Animation_Comedy_Sci-Fi",4.0000,2,8.0000
100714,"Drama_Romance",3.5000,3,10.5000
100737,"Action_Drama_Thriller",3.5000,1,3.5000
100810,"Horror_Sci-Fi_Thriller",3.0000,2,6.0000
100843,"Comedy_Drama",3.5000,1,3.5000
100882,"Adventure_Comedy_Fantasy_Romance_IMAX",4.7500,2,9.5000
100906,"Action_Horror_Thriller",5.0000,1,5.0000
101025,"Adventure_Fantasy_IMAX",2.2000,5,11.0000
101070,"Drama",2.5000,1,2.5000
101072,"Comedy",2.5000,1,2.5000
101074,"Animation_Comedy_Horror_Musical",2.0000,1,2.0000
101076,"Action_Adventure_Sci-Fi_Thriller_IMAX",3.0000,3,9.0000
101088,"Drama_Mystery_Thriller",3.7500,2,7.5000
101112,"Action_Adventure_Fantasy_IMAX",3.0833,6,18.5000
101142,"Adventure_Animation_Comedy",3.7778,9,34.0000
101283,"Comedy",2.8333,3,8.5000
101360,"Drama_Thriller",1.5000,1,1.5000
101362,"Action_Thriller",2.8750,8,23.0000
101415,"Comedy_Drama_Romance",1.5000,2,3.0000
101423,"Action_Animation_Comedy",3.0000,1,3.0000
101525,"Crime_Drama",3.5000,5,17.5000
101529,"Comedy_Fantasy_Thriller",2.0000,1,2.0000
101531,"Drama",2.0000,1,2.0000
101577,"Action_Adventure_Romance",2.5000,4,10.0000
101612,"Comedy_Romance",3.0000,4,12.0000
101739,"Horror",3.2500,2,6.5000
101741,"Crime_Thriller",3.7500,2,7.5000
101765,"Adventure_Comedy_Romance",4.2500,2,8.5000
101864,"Action_Adventure_Sci-Fi_IMAX",3.3000,20,66.0000
101884,"Adventure_Drama_Thriller",1.5000,1,1.5000
101895,"Drama",4.0000,1,4.0000
101962,"Animation_Fantasy",4.0000,4,16.0000
101973,"Drama_Thriller",1.5000,1,1.5000
102007,"Animation",3.0000,1,3.0000
102025,"Children_Horror_Sci-Fi",0.5000,1,0.5000
102033,"Action_Comedy_Crime",3.2000,5,16.0000
102058,"Animation",3.0000,1,3.0000
102066,"Horror_Thriller",4.0000,1,4.0000
102070,"Comedy_Horror_Sci-Fi",3.0000,1,3.0000
102084,"Action_Animation_Fantasy",5.0000,1,5.0000
102088,"Action_Drama_IMAX",2.0000,1,2.0000
102123,"Action_Comedy",3.2143,14,45.0000
102125,"Action_Sci-Fi_Thriller_IMAX",3.5625,32,114.0000
102165,"Comedy_Drama",2.0000,1,2.0000
102194,"Adventure_Crime_Drama",4.3333,3,13.0000
102217,"Comedy",5.0000,1,5.0000
102278,"Crime_Thriller",2.0000,1,2.0000
102338,"Action_Adventure_Drama",4.5000,1,4.5000
102378,"Comedy_Drama",2.7500,2,5.5000
102407,"Drama",3.3750,20,67.5000
102445,"Action_Adventure_Sci-Fi_IMAX",3.6852,27,99.5000
102481,"Comedy",3.5500,10,35.5000
102590,"Documentary_Fantasy",3.0000,1,3.0000
102602,"Comedy",4.0000,1,4.0000
102666,"Adventure_Comedy",4.5000,1,4.5000
102684,"Drama_Thriller",3.7500,2,7.5000
102686,"Comedy",3.3750,8,27.0000
102716,"Action_Crime_Thriller_IMAX",3.3571,7,23.5000
102720,"Adventure_Animation_Fantasy",3.0000,2,6.0000
102735,"Action_Drama",0.5000,1,0.5000
102742,"Documentary",4.0000,1,4.0000
102747,"Comedy",3.5000,1,3.5000
102749,"Action_Crime",0.5000,1,0.5000
102760,"Comedy_Crime_Drama",4.0000,1,4.0000
102800,"Comedy_Drama",2.5000,1,2.5000
102802,"Horror_Thriller",2.5000,1,2.5000
102819,"Drama",3.0000,1,3.0000
102823,"Documentary",3.5000,1,3.5000
102852,"Documentary",3.0000,1,3.0000
102880,"Action_Adventure_Sci-Fi_IMAX",1.0000,2,2.0000
102903,"Crime_Mystery_Thriller",3.4091,22,75.0000
102984,"Horror_Thriller",4.5000,1,4.5000
102993,"Comedy_Drama",3.1250,4,12.5000
103027,"Comedy_Drama_Romance",3.0000,1,3.0000
103042,"Action_Adventure_Fantasy_Sci-Fi_IMAX",3.2955,22,72.5000
103048,"Comedy",3.5000,2,7.0000
103075,"Crime_Horror_Thriller",3.2500,4,13.0000
103085,"Comedy_Fantasy",3.0000,1,3.0000
103107,"Documentary",4.2500,2,8.5000
103137,"Crime_Drama",2.0000,2,4.0000
103141,"Adventure_Animation_Comedy",3.8750,16,62.0000
103171,"Comedy",1.0000,1,1.0000
103210,"Action_Adventure_Animation",2.0000,1,2.0000
103219,"Horror_Thriller",3.5000,1,3.5000
103221,"Comedy_Romance",2.5000,1,2.5000
103228,"Action_Adventure_Sci-Fi_IMAX",3.6071,14,50.5000
103233,"Action_Adventure_Animation",3.0000,1,3.0000
103235,"Thriller",4.0000,5,20.0000
103245,"Comedy_Drama_Romance",2.5000,1,2.5000
103249,"Action_Drama_Horror_IMAX",3.0263,19,57.5000
103253,"Action_Drama_Sci-Fi_IMAX",3.3125,16,53.0000
103335,"Animation_Children_Comedy_IMAX",3.5789,19,68.0000
103339,"Action_Drama_Thriller_IMAX",2.9167,6,17.5000
103341,"Action_Comedy_Sci-Fi",3.4167,18,61.5000
103366,"Action_Crime_Thriller",2.0000,1,2.0000
103372,"Action_Comedy_Crime",3.4167,6,20.5000
103384,"Action_Adventure_Western_IMAX",2.7857,7,19.5000
103449,"Crime_Drama_Mystery_Thriller",1.0000,1,1.0000
103483,"Horror_Thriller",4.5000,1,4.5000
103502,"Comedy_Romance",1.5000,1,1.5000
103539,"Comedy_Drama_Romance",3.2500,2,6.5000
103543,"Comedy_Drama",3.5000,2,7.0000
103596,"Sci-Fi",1.8750,4,7.5000
103602,"Comedy_Documentary",5.0000,1,5.0000
103606,"Comedy_Drama_Romance",4.0000,1,4.0000
103609,"Comedy",1.5000,1,1.5000
103624,"Drama",4.0000,2,8.0000
103655,"Action_Comedy_Fantasy",1.8333,3,5.5000
103685,"Drama_Fantasy_Thriller_War",4.5000,1,4.5000
103688,"Horror_Thriller",4.2143,7,29.5000
103755,"Adventure_Animation_Children_Comedy_Fantasy",2.5000,1,2.5000
103772,"Action_Adventure_Fantasy_Sci-Fi",3.3750,16,54.0000
103801,"Comedy_Drama_Romance",2.3333,3,7.0000
103810,"Action_Comedy_Crime_Thriller",3.2000,5,16.0000
103819,"Comedy",2.2500,2,4.5000
103865,"Comedy_Drama",2.0000,1,2.0000
103883,"Action_Comedy_Crime",4.0000,3,12.0000
103980,"Drama",3.3750,4,13.5000
103984,"Comedy_Drama",3.5000,3,10.5000
104017,"Action_Adventure_Sci-Fi",0.5000,1,0.5000
104069,"Comedy",4.1250,4,16.5000
104074,"Adventure_Children_Fantasy",1.7500,2,3.5000
104076,"Animation_Children_Comedy",1.8750,4,7.5000
104078,"Comedy",4.0000,1,4.0000
104129,"Action_IMAX",3.2500,2,6.5000
104141,"Action_Animation_Children_Crime",3.0000,1,3.0000
104211,"Comedy_Crime",3.7381,21,78.5000
104218,"Comedy",3.4000,5,17.0000
104241,"Action_Comedy_Crime",3.4545,11,38.0000
104243,"Action_Sci-Fi_Thriller_IMAX",3.3000,5,16.5000
104245,"Adventure_Animation_Comedy",3.0000,2,6.0000
104272,"Documentary",3.0000,2,6.0000
104283,"Animation_Drama_Romance",4.0000,3,12.0000
104303,"Drama",2.5000,3,7.5000
104337,"Drama",1.5000,1,1.5000
104339,"Comedy",4.0000,2,8.0000
104374,"Drama_Fantasy_Romance",3.9333,15,59.0000
104419,"Action_Animation_Sci-Fi",3.2500,2,6.5000
104457,"Horror_Thriller",3.7500,2,7.5000
104644,"Comedy",0.5000,1,0.5000
104760,"Action_Crime",1.0000,1,1.0000
104780,"Adventure_Animation_Sci-Fi",5.0000,1,5.0000
104837,"Action_Crime",2.0000,1,2.0000
104841,"Action_Sci-Fi_IMAX",3.5781,32,114.5000
104863,"Comedy_Drama_Romance",2.6667,3,8.0000
104875,"Adventure_Comedy_Musical_Sci-Fi",4.0000,2,8.0000
104879,"Drama_Mystery_Thriller",4.1562,16,66.5000
104906,"Comedy_Romance",3.1667,3,9.5000
104908,"Horror_Thriller",3.0000,2,6.0000
104913,"Action_Drama",3.8182,11,42.0000
104925,"Action_Comedy_Crime",3.5000,3,10.5000
104944,"Drama",3.7500,2,7.5000
105020,"Action_Comedy_Thriller",1.5000,1,1.5000
105037,"Comedy",2.5000,4,10.0000
105121,"Action_Drama_War",1.0000,1,1.0000
105197,"Adventure_Drama",4.1250,4,16.5000
105211,"Comedy_Drama_Romance",3.0000,2,6.0000
105213,"Comedy_Drama_Romance",3.1250,8,25.0000
105246,"Drama_Fantasy",3.5000,1,3.5000
105250,"Documentary",3.7500,2,7.5000
105254,"Adventure_Comedy",3.5000,2,7.0000
105325,"Comedy_Horror",1.0000,1,1.0000
105351,"Crime_Drama_Thriller",2.2500,2,4.5000
105355,"Drama_Romance",3.2500,2,6.5000
105468,"Animation_Children_Comedy_Fantasy",2.2500,2,4.5000
105504,"Adventure_Drama_Thriller_IMAX",4.0476,21,85.0000
105540,"Animation_Children_Comedy_Musical",4.5000,1,4.5000
105585,"Action_Crime_Thriller",4.0000,2,8.0000
105593,"Comedy_Crime_Drama",4.5000,2,9.0000
105653,"Action_Mystery_Thriller",4.0000,4,16.0000
105720,"Comedy_Crime_Drama",3.0000,1,3.0000
105731,"Drama_Horror",2.5000,2,5.0000
105746,"Documentary",4.5000,1,4.5000
105755,"Crime_Drama_Thriller",1.5000,1,1.5000
105801,"Drama_Fantasy_Horror",3.0000,1,3.0000
105835,"Comedy_Drama_Thriller",4.0000,1,4.0000
105844,"Drama",3.6250,16,58.0000
105954,"Action_Adventure_Drama",3.6250,4,14.5000
106002,"Action_Adventure_Sci-Fi_IMAX",3.4375,16,55.0000
106062,"Comedy",3.2500,2,6.5000
106072,"Action_Adventure_Fantasy_IMAX",3.3095,21,69.5000
106100,"Drama",3.9706,17,67.5000
106144,"Drama",3.5000,1,3.5000
106330,"Comedy_Drama_Romance",2.0000,2,4.0000
106438,"Comedy_Drama",3.2500,2,6.5000
106441,"Children_Drama_War",3.0000,1,3.0000
106487,"Action_Adventure_Sci-Fi_IMAX",3.6346,26,94.5000
106489,"Adventure_Fantasy_IMAX",3.5800,25,89.5000
106491,"Action_Adventure_Fantasy",2.6429,7,18.5000
106540,"Comedy",2.8750,4,11.5000
106542,"Action_Comedy_Romance",1.5000,1,1.5000
106594,"Comedy_Drama_Romance",4.5000,1,4.5000
106642,"Adventure_Drama_Sci-Fi",4.5714,7,32.0000
106648,"Crime_Drama_Horror",3.0000,1,3.0000
106696,"Adventure_Animation_Comedy_Fantasy_Musical_Romance",3.6207,29,105.0000
106766,"Drama",3.6429,7,25.5000
106782,"Comedy_Crime_Drama",3.9167,54,211.5000
106785,"Action_Crime_Thriller",3.0000,1,3.0000
106839,"Drama",3.7500,2,7.5000
106873,"Action_Animation_Drama",2.5000,3,7.5000
106883,"Comedy_Drama",1.5000,1,1.5000
106889,"Documentary",4.0000,1,4.0000
106916,"Crime_Drama",3.2500,16,52.0000
106918,"Adventure_Comedy_Drama",4.0000,20,80.0000
106920,"Drama_Romance_Sci-Fi",3.9200,25,98.0000
106927,"Action_Comedy_Sci-Fi",3.0000,1,3.0000
107013,"Drama_Fantasy",0.5000,1,0.5000
107069,"Action_Drama_Thriller_War",3.0000,2,6.0000
107141,"Comedy_Drama",3.6875,8,29.5000
107159,"Action_Drama",4.0000,1,4.0000
107314,"Action_Drama_Mystery",3.0000,2,6.0000
107338,"Comedy_Crime",2.5000,1,2.5000
107348,"Comedy",3.3636,11,37.0000
107406,"Action_Drama_Sci-Fi",3.4286,21,72.0000
107408,"Comedy_Drama_War",4.5000,1,4.5000
107410,"Adventure_Drama_Sci-Fi",4.0000,1,4.0000
107412,"Comedy_Romance",4.5000,1,4.5000
107436,"Horror_Mystery_Thriller",3.0000,1,3.0000
107447,"Comedy_Crime",4.0000,1,4.0000
107449,"Children_Comedy",1.5000,1,1.5000
107462,"Action_Crime_Thriller",4.5000,1,4.5000
107565,"Comedy",2.7500,2,5.5000
107630,"Comedy",4.5000,1,4.5000
107702,"Comedy",2.5000,2,5.0000
107723,"Action_Adventure_Fantasy",3.0000,1,3.0000
107771,"Drama_Horror_Romance",5.0000,1,5.0000
107780,"Musical",4.0000,1,4.0000
107846,"Action_Adventure",3.5000,1,3.5000
107945,"Thriller",2.0000,1,2.0000
107951,"Comedy_Crime",5.0000,1,5.0000
107953,"Action_Animation_Fantasy_IMAX",4.0000,2,8.0000
107962,"Action_Thriller",2.0000,1,2.0000
107997,"Drama_Horror_Mystery_Thriller",2.2500,2,4.5000
107999,"Animation_Children",4.0000,1,4.0000
108078,"Comedy_Romance",5.0000,1,5.0000
108090,"Action_Adventure_Animation_Children",3.5000,1,3.5000
108156,"Action_Comedy",3.1667,6,19.0000
108188,"Action_Drama_Thriller_IMAX",2.0000,2,4.0000
108190,"Adventure_Romance_Sci-Fi_IMAX",3.0000,18,54.0000
108192,"Drama",3.5000,1,3.5000
108540,"Adventure_Animation_Children_Comedy_Drama_Romance",4.5000,1,4.5000
108601,"Drama",2.0000,1,2.0000
108689,"Action_Fantasy_Sci-Fi_IMAX",2.2500,2,4.5000
108715,"Comedy_Drama",1.5000,1,1.5000
108727,"Drama",4.2500,2,8.5000
108729,"Mystery_Thriller",3.5000,7,24.5000
108795,"Action_Adventure_Animation_Fantasy",5.0000,1,5.0000
108928,"Action_Drama_War",2.6667,6,16.0000
108932,"Action_Adventure_Animation_Children_Comedy_Fantasy",3.8710,31,120.0000
108945,"Action_Crime_Sci-Fi_IMAX",2.3333,6,14.0000
108949,"Crime",3.3333,3,10.0000
108981,"Drama_Mystery",4.5000,1,4.5000
109042,"Adventure_Comedy_Fantasy",2.2500,2,4.5000
109161,"Drama",4.5000,1,4.5000
109183,"Comedy",2.0000,1,2.0000
109187,"Drama_Fantasy_Sci-Fi",3.0000,3,9.0000
109191,"Drama_Fantasy_Mystery",1.5000,1,1.5000
109241,"Action_Comedy_Crime",5.0000,1,5.0000
109282,"Documentary",3.0000,1,3.0000
109295,"Crime_Drama_Thriller",2.0000,1,2.0000
109313,"Comedy",4.0000,1,4.0000
109317,"Comedy",2.5000,1,2.5000
109372,"Comedy_Romance",2.2500,2,4.5000
109374,"Comedy_Drama",3.7788,52,196.5000
109383,"Animation_Comedy_Drama_Romance",3.5000,1,3.5000
109416,"Comedy",2.0000,1,2.0000
109483,"Comedy_Romance",2.6250,4,10.5000
109487,"Sci-Fi_IMAX",3.9932,73,291.5000
109569,"Action_Crime_Drama",1.0000,2,2.0000
109576,"Comedy",2.0000,2,4.0000
109578,"Action_Mystery_Thriller",3.2500,4,13.0000
109596,"Animation_Drama",4.0000,1,4.0000
109633,"Animation_Romance",5.0000,1,5.0000
109673,"Action_Drama_War_IMAX",2.1250,4,8.5000
109687,"Documentary",5.0000,1,5.0000
109723,"Crime_Drama_Thriller",3.5000,1,3.5000
109846,"Adventure_Animation_Comedy",3.2500,4,13.0000
109848,"Horror_Sci-Fi_Thriller",2.7500,2,5.5000
109850,"Action_Crime_Drama_IMAX",3.7500,2,7.5000
109853,"Comedy_Drama_Romance",3.0000,2,6.0000
109864,"Comedy_Crime_Drama",1.7500,2,3.5000
109895,"Comedy",2.0000,3,6.0000
109897,"Drama",0.5000,1,0.5000
109941,"Animation_Comedy",3.0000,1,3.0000
109968,"Action_Drama",4.2500,2,8.5000
109971,"Comedy",4.5000,1,4.5000
110102,"Action_Adventure_Sci-Fi_IMAX",3.7419,31,116.0000
110127,"Adventure_Drama_IMAX",2.8000,5,14.0000
110130,"Adventure_Animation_Children_Comedy",4.3333,3,13.0000
110281,"Comedy_Drama_Romance",4.0000,1,4.0000
110286,"Horror_Thriller",3.5000,1,3.5000
110297,"Adventure_Comedy_Crime",3.3333,3,10.0000
110330,"Drama",4.5000,1,4.5000
110350,"Documentary",4.5000,1,4.5000
110387,"Documentary",4.0000,1,4.0000
110501,"Action_Crime_Thriller",3.9286,7,27.5000
110541,"Action_Comedy",2.5000,1,2.5000
110553,"Action_Sci-Fi_IMAX",2.6364,11,29.0000
110586,"Comedy_Drama",4.0000,1,4.0000
110591,"Horror",4.5000,1,4.5000
110603,"Drama",0.5000,1,0.5000
110611,"Drama_Thriller",2.5000,1,2.5000
110655,"Adventure_Animation_Children_Comedy",2.0000,2,4.0000
110669,"Comedy_Documentary",3.7500,2,7.5000
110718,"Comedy",4.0000,1,4.0000
110730,"Drama_Sci-Fi_IMAX",2.2857,7,16.0000
110746,"Comedy_Horror",4.0000,1,4.0000
110771,"Comedy_Romance",2.9167,6,17.5000
110773,"Comedy_Horror",0.5000,1,0.5000
110781,"Action_Animation_Children_Comedy_Musical",2.5000,1,2.5000
110826,"Action_Crime_Drama",1.5000,1,1.5000
110882,"Drama",3.8333,3,11.5000
111113,"Comedy",3.2917,12,39.5000
111146,"Action_Adventure_Animation_Children_Comedy",4.5000,1,4.5000
111320,"Comedy",1.5000,1,1.5000
111360,"Action_Sci-Fi",2.8214,14,39.5000
111362,"Action_Adventure_Sci-Fi",3.8333,30,115.0000
111364,"Action_Adventure_Sci-Fi_IMAX",2.6154,13,34.0000
111375,"Comedy",2.5000,1,2.5000
111384,"Thriller",4.0000,1,4.0000
111443,"Comedy",2.7500,2,5.5000
111551,"Horror_Sci-Fi_Thriller",3.5000,1,3.5000
111617,"Comedy",3.8125,8,30.5000
111622,"Comedy_Romance",4.0000,3,12.0000
111659,"Action_Adventure_Children_IMAX",2.7500,16,44.0000
111663,"Action_Comedy_Horror",2.5000,2,5.0000
111680,"Comedy_Romance",1.5000,1,1.5000
111732,"Drama_Fantasy",3.5000,1,3.5000
111743,"Comedy_Western",2.9583,12,35.5000
111759,"Action_Sci-Fi_IMAX",3.9773,44,175.0000
111781,"Action_Adventure_Thriller",3.6471,17,62.0000
111785,"Action_Adventure_Fantasy",0.5000,1,0.5000
111795,"Comedy_Drama",3.0000,1,3.0000
111800,"Comedy",3.0000,1,3.0000
111817,"Drama",3.5000,1,3.5000
111844,"Action_Drama",3.5000,1,3.5000
111913,"Drama",4.5000,1,4.5000
111921,"Drama_Romance",3.3889,9,30.5000
112006,"Action_Animation_Children",3.8333,3,11.5000
112070,"Drama",3.5000,1,3.5000
112138,"Action_Comedy_Crime",3.6842,19,70.0000
112171,"Action_Crime_Thriller",3.2778,9,29.5000
112175,"Action_Adventure_Animation",3.7667,15,56.5000
112183,"Comedy_Drama",3.3462,26,87.0000
112290,"Drama",3.8235,17,65.0000
112303,"Comedy_Romance",1.5000,1,1.5000
112316,"Drama_Musical",2.5000,1,2.5000
112326,"Action_Sci-Fi",1.0000,1,1.0000
112334,"Documentary",4.5000,1,4.5000
112370,"Action_Adventure_Sci-Fi",1.8750,4,7.5000
112421,"Comedy_Drama_Mystery",4.3333,3,13.0000
112450,"Comedy_Romance",2.0000,1,2.0000
112454,"Drama",3.5000,1,3.5000
112460,"Adventure_Animation_Comedy",2.2500,2,4.5000
112497,"Comedy",2.0000,2,4.0000
112512,"Animation_Drama_Fantasy_Mystery",5.0000,1,5.0000
112515,"Drama_Horror_Thriller",4.5000,3,13.5000
112552,"Drama",4.0395,38,153.5000
112556,"Drama_Thriller",3.7162,37,137.5000
112580,"Comedy_Drama",4.0000,1,4.0000
112623,"Sci-Fi",3.4333,15,51.5000
112727,"Crime_Horror_Thriller",3.0000,1,3.0000
112749,"Comedy_Drama_Romance",2.0000,1,2.0000
112788,"Comedy",2.6000,5,13.0000
112804,"Drama_Sci-Fi",3.8333,3,11.5000
112818,"Action_Horror_Thriller",3.3000,5,16.5000
112852,"Action_Adventure_Sci-Fi",4.0508,59,239.0000
112868,"Sci-Fi_Thriller",4.5000,1,4.5000
112897,"Action_Adventure",3.5000,3,10.5000
112911,"Action_Adventure",2.0000,4,8.0000
112940,"Thriller",4.5000,1,4.5000
113159,"Comedy_Horror_Romance",3.5000,1,3.5000
113186,"Thriller",3.0000,1,3.0000
113207,"Drama_Musical",3.5000,1,3.5000
113225,"Comedy_Drama_Romance",3.0000,1,3.0000
113252,"Comedy_Horror_Thriller",4.2500,2,8.5000
113275,"Comedy_Drama",4.5000,1,4.5000
113278,"Action_Animation_Crime_Thriller",3.0000,1,3.0000
113280,"Drama",4.0000,1,4.0000
113313,"Horror_Thriller",3.5000,1,3.5000
113345,"Action_Adventure_Sci-Fi",2.0000,2,4.0000
113348,"Action_Adventure_Comedy",2.7500,4,11.0000
113350,"Drama_Mystery_Sci-Fi",1.5000,1,1.5000
113374,"Animation_Comedy",3.0000,1,3.0000
113378,"Drama_Sci-Fi",2.3000,5,11.5000
113394,"Comedy_Drama",4.0000,1,4.0000
113416,"Action_Crime_Drama",1.5000,1,1.5000
113453,"Comedy_Crime",3.1000,5,15.5000
113532,"Comedy",3.5000,2,7.0000
113565,"Horror_Thriller",4.0000,1,4.0000
113573,"Action_Crime_Thriller",3.2500,4,13.0000
113604,"Drama",2.0000,1,2.0000
113705,"Drama",3.5000,1,3.5000
113741,"Drama_Mystery_Sci-Fi_Thriller",4.0000,2,8.0000
113780,"Horror_Thriller",3.0000,1,3.0000
113829,"Comedy_Drama_Romance",5.0000,1,5.0000
113849,"Crime_Drama_Thriller",2.5000,1,2.5000
113862,"Thriller",4.0000,1,4.0000
114028,"Comedy_Drama",4.0000,2,8.0000
114044,"Horror",3.5000,1,3.5000
114060,"Crime_Drama_Thriller",2.8333,3,8.5000
114066,"Documentary_Drama_Musical",4.0000,1,4.0000
114074,"Drama",3.3333,3,10.0000
114126,"Documentary",2.5000,1,2.5000
114180,"Action_Mystery_Sci-Fi",2.9375,16,47.0000
114184,"Drama",3.5000,1,3.5000
114246,"Action_Crime_Mystery_Thriller",3.0000,1,3.0000
114265,"Comedy_Romance",5.0000,1,5.0000
114335,"(no_genres_listed)",3.0000,1,3.0000
114396,"Drama",1.5000,1,1.5000
114494,"Thriller",1.5000,1,1.5000
114554,"Animation_Drama_Fantasy",1.0000,1,1.0000
114601,"Comedy_Drama",2.7500,2,5.5000
114627,"Animation_Drama_Fantasy",3.2500,2,6.5000
114662,"Action_War",3.8000,15,57.0000
114670,"Comedy_Drama_Horror",3.5000,1,3.5000
114678,"Adventure_Comedy_Drama",4.2500,2,8.5000
114707,"Horror_Mystery",3.0000,1,3.0000
114713,"Horror",3.0000,2,6.0000
114762,"Comedy_Romance",2.8333,3,8.5000
114795,"Action_Drama_Fantasy",3.5000,4,14.0000
114818,"Action_Comedy_Crime",2.1667,3,6.5000
114847,"Sci-Fi_Thriller",3.0000,1,3.0000
114925,"Crime_Drama_Thriller",2.0000,1,2.0000
114935,"Action_Mystery_Sci-Fi_Thriller",3.9000,10,39.0000
115065,"Adventure_Animation",2.0000,1,2.0000
115111,"Action_Animation_Comedy_Horror",3.5000,1,3.5000
115122,"Comedy_Horror",4.8333,3,14.5000
115149,"Action_Thriller",3.8448,29,111.5000
115151,"Action_Crime",2.0000,1,2.0000
115170,"Drama",2.5000,1,2.5000
115203,"Documentary",3.0000,1,3.0000
115210,"Action_Drama_War",3.7692,13,49.0000
115216,"Drama_Western",3.0000,1,3.0000
115231,"Comedy",3.2500,2,6.5000
115502,"Comedy_Romance",3.5000,1,3.5000
115569,"Crime_Drama_Thriller",4.1667,18,75.0000
115617,"Action_Animation_Comedy",3.8537,41,158.0000
115664,"Adventure_Animation_Romance",4.0000,2,8.0000
115667,"Comedy_Romance",3.5000,1,3.5000
115680,"Crime_Drama_Sci-Fi_Thriller",3.8333,3,11.5000
115713,"Drama_Sci-Fi_Thriller",3.9107,28,109.5000
115727,"Action_Adventure",5.0000,1,5.0000
115819,"Animation_Comedy",3.0000,1,3.0000
115828,"Adventure_Drama_Romance",4.5000,1,4.5000
115877,"Animation_Comedy",3.6667,3,11.0000
115969,"Drama_War",4.0000,1,4.0000
116044,"Comedy_Romance",1.5000,1,1.5000
116138,"Drama",2.0000,1,2.0000
116169,"Action",2.5000,1,2.5000
116207,"Crime_Drama_Thriller",1.5000,1,1.5000
116411,"Drama",4.5000,1,4.5000
116413,"Comedy_Romance",3.0000,1,3.0000
116419,"Action_Comedy_Crime",1.5000,1,1.5000
116505,"Action_Comedy",3.0000,1,3.0000
116529,"Action_Drama_War_IMAX",3.0000,1,3.0000
116668,"Action_Comedy_Horror",4.0000,2,8.0000
116718,"Comedy_Musical",3.5000,1,3.5000
116724,"Comedy_Drama_Romance",4.0000,1,4.0000
116738,"Adventure_Comedy_Horror",3.5000,1,3.5000
116797,"Drama_Thriller_War",4.0200,50,201.0000
116799,"Comedy_Crime_Drama_Mystery_Romance",3.6667,6,22.0000
116817,"Comedy_Drama",4.5000,1,4.5000
116823,"Adventure_Sci-Fi_Thriller",3.8696,23,89.0000
116849,"Comedy_Romance",2.5000,1,2.5000
116887,"Action_Adventure_Drama",2.7500,2,5.5000
116897,"Comedy_Drama_Thriller",4.2500,10,42.5000
116941,"Animation_Children_Comedy_Musical_Sci-Fi",2.0000,1,2.0000
116963,"Comedy",1.5000,1,1.5000
116977,"Comedy",2.3333,3,7.0000
116985,"Comedy_Drama",1.5000,1,1.5000
117107,"Drama",2.5000,1,2.5000
117109,"Comedy",3.0000,2,6.0000
117133,"Action_Drama_Thriller",3.5000,1,3.5000
117176,"Drama_Romance",3.7059,17,63.0000
117192,"Adventure_Drama",4.5000,3,13.5000
117364,"Documentary_War",4.0000,1,4.0000
117368,"Animation_Comedy",3.5000,1,3.5000
117444,"Animation_Children_Fantasy",3.0000,1,3.0000
117466,"Action_Adventure_Drama",3.5000,3,10.5000
117511,"Comedy",3.0000,1,3.0000
117529,"Action_Adventure_Drama_Sci-Fi_Thriller",3.2609,23,75.0000
117531,"Documentary",5.0000,1,5.0000
117533,"Documentary",3.8750,4,15.5000
117545,"Animation",3.7500,2,7.5000
117572,"Comedy_Crime_Romance",2.5000,1,2.5000
117590,"Comedy_Crime",3.6364,11,40.0000
117630,"Action_Comedy_Crime_Romance",1.0000,1,1.0000
117646,"Action_Adventure_Comedy_Drama_Fantasy_Thriller",4.5000,1,4.5000
117849,"Comedy",4.5000,1,4.5000
117851,"Adventure_Animation_Children_Comedy",3.7000,5,18.5000
117867,"Action_Drama_Thriller_War",4.0000,1,4.0000
117877,"Adventure_Animation",3.0000,1,3.0000
117881,"Drama",3.8000,5,19.0000
117887,"Children_Comedy",4.0000,4,16.0000
117895,"Action_Thriller",1.8333,6,11.0000
117922,"Adventure_Animation_Children",3.5000,1,3.5000
118082,"Comedy_Crime_Thriller",3.5000,1,3.5000
118166,"Comedy_Drama_Romance",3.5000,1,3.5000
118198,"Documentary_Drama_Thriller",2.5000,1,2.5000
118248,"Drama_Thriller",1.5000,1,1.5000
118270,"Comedy_Horror_Thriller",5.0000,1,5.0000
118290,"Sci-Fi",2.0000,1,2.0000
118326,"Crime_Drama_Thriller",2.0000,1,2.0000
118354,"Crime_Drama_Mystery_Thriller",3.0000,1,3.0000
118512,"Comedy",1.5000,1,1.5000
118530,"Comedy",4.5000,1,4.5000
118572,"Comedy_Crime_Drama",3.5000,2,7.0000
118696,"Adventure_Fantasy",3.4167,18,61.5000
118700,"Drama",2.5000,2,5.0000
118702,"Drama_War",2.5000,3,7.5000
118706,"Adventure_Mystery_Thriller",4.0000,1,4.0000
118784,"Documentary",3.5000,1,3.5000
118814,"Comedy_Romance",2.0000,1,2.0000
118834,"Comedy",5.0000,1,5.0000
118862,"Comedy_Drama",4.0000,1,4.0000
118880,"Horror_Romance_Thriller",3.5000,2,7.0000
118888,"Comedy",4.2500,2,8.5000
118894,"Animation_Children_Mystery",5.0000,1,5.0000
118896,"Drama",4.0000,1,4.0000
118900,"Drama",2.9000,5,14.5000
118924,"Comedy",3.0000,2,6.0000
118930,"Comedy",4.5000,1,4.5000
118985,"Drama",3.7500,2,7.5000
118997,"Children_Comedy_Fantasy_Musical",2.8000,5,14.0000
119068,"Comedy_Drama",2.0000,1,2.0000
119141,"Action_Comedy",3.4583,12,41.5000
119145,"Action_Adventure_Comedy_Crime",3.9861,36,143.5000
119153,"Comedy",4.5000,1,4.5000
119155,"Adventure_Children_Comedy_Fantasy",3.5000,6,21.0000
119167,"Sci-Fi_Thriller",3.5000,1,3.5000
119218,"Action_Crime_Drama",2.5000,1,2.5000
119655,"Adventure_Children_Fantasy",2.2500,2,4.5000
119714,"Comedy",3.5000,1,3.5000
119828,"Action_Drama_Thriller_Western",3.0000,1,3.0000
119964,"Comedy",2.0000,1,2.0000
120130,"Animation_Drama_Fantasy",5.0000,1,5.0000
120138,"Comedy_Drama_Fantasy_Mystery_Romance",5.0000,1,5.0000
120466,"Action_Thriller",3.2500,10,32.5000
120478,"Documentary",4.3333,3,13.0000
120625,"Drama",4.5000,1,4.5000
120635,"Action_Crime_Thriller",2.7000,5,13.5000
120637,"Action_Crime_Drama_Mystery_Thriller",2.5000,2,5.0000
120761,"Drama",3.5000,1,3.5000
120783,"Action_Crime_Drama",2.5000,1,2.5000
120799,"Action_Adventure_Sci-Fi_Thriller",2.5000,9,22.5000
120807,"Comedy",4.0000,1,4.0000
120813,"Comedy",4.5000,1,4.5000
120827,"Crime_Drama_Horror_Mystery",3.0000,1,3.0000
120919,"Action_Comedy",3.0000,1,3.0000
121007,"Adventure_Children_Fantasy_Sci-Fi",4.0000,1,4.0000
121035,"Drama",2.0000,1,2.0000
121097,"Adventure_Children_Comedy",2.7500,2,5.5000
121099,"Animation_Children",2.5000,1,2.5000
121129,"Comedy",2.5000,1,2.5000
121169,"Drama",3.5000,1,3.5000
121171,"Documentary",4.0000,1,4.0000
121231,"Horror",4.1250,4,16.5000
121253,"Horror_Thriller",3.0000,1,3.0000
121338,"Adventure_Comedy_Romance",4.5000,1,4.5000
121342,"Comedy_Romance",3.5000,1,3.5000
121372,"Comedy",4.5000,1,4.5000
121374,"Comedy",4.5000,1,4.5000
121469,"Comedy_Horror_Mystery_Thriller",4.5000,1,4.5000
121715,"Comedy",3.5000,1,3.5000
121781,"Animation_Children_Comedy_Fantasy",5.0000,1,5.0000
122092,"Comedy_War",5.0000,1,5.0000
122246,"Children_Comedy",0.5000,1,0.5000
122260,"Drama_War",2.5000,1,2.5000
122433,"Horror_Mystery_Thriller",1.0000,1,1.0000
122490,"Action_Drama_Thriller",1.5000,1,1.5000
122627,"Sci-Fi",0.5000,1,0.5000
122882,"Action_Adventure_Sci-Fi_Thriller",3.8191,47,179.5000
122884,"Fantasy_Horror_Thriller",2.5000,2,5.0000
122886,"Action_Adventure_Fantasy_Sci-Fi_IMAX",3.8537,41,158.0000
122888,"(no_genres_listed)",0.5000,1,0.5000
122890,"Action_Adventure_Fantasy",3.4167,6,20.5000
122892,"Action_Adventure_Sci-Fi",3.5185,27,95.0000
122896,"(no_genres_listed)",3.7857,7,26.5000
122898,"Action_Adventure_Sci-Fi",2.5000,6,15.0000
122900,"Action_Adventure_Sci-Fi",3.7222,27,100.5000
122902,"Action_Adventure_Fantasy_Sci-Fi",2.1000,5,10.5000
122904,"Action_Adventure_Comedy_Sci-Fi",3.8333,54,207.0000
122906,"Action_Adventure_Sci-Fi",3.7273,11,41.0000
122912,"Action_Adventure_Sci-Fi",4.0000,13,52.0000
122916,"Action_Adventure_Sci-Fi",4.0250,20,80.5000
122918,"Action_Adventure_Sci-Fi",3.9259,27,106.0000
122920,"Action_Sci-Fi_Thriller",3.6136,22,79.5000
122922,"Action_Adventure_Sci-Fi",3.7045,22,81.5000
122924,"Action_Adventure_Fantasy_Sci-Fi",3.0714,14,43.0000
122926,"Action_Adventure_Fantasy",4.1562,16,66.5000
122932,"Children_Comedy_Romance",2.0000,1,2.0000
123200,"Comedy",4.5000,1,4.5000
123310,"Action",2.0000,1,2.0000
123545,"Drama_Romance",3.0000,1,3.0000
123553,"Action_Adventure_Drama_Fantasy",1.0000,1,1.0000
123947,"Drama",2.7500,2,5.5000
124273,"Comedy",4.5000,1,4.5000
124404,"Adventure_Animation_Children_Comedy",5.0000,1,5.0000
124484,"Comedy_Drama",3.0000,1,3.0000
124851,"Adventure_Romance_Sci-Fi",5.0000,1,5.0000
124853,"Animation_Documentary",4.0000,1,4.0000
124859,"Crime_Drama_Thriller",2.0000,1,2.0000
125221,"Horror_Sci-Fi_Western",0.5000,1,0.5000
125914,"Adventure_Comedy_Mystery_Romance",3.0000,1,3.0000
125916,"Drama_Romance",1.0000,3,3.0000
125970,"Adventure_Children_Comedy_Fantasy",3.5000,1,3.5000
125974,"Adventure_Children_Comedy_Fantasy",3.7500,2,7.5000
126088,"Animation_Children_Comedy",5.0000,1,5.0000
126090,"Animation",4.5000,1,4.5000
126142,"Adventure_Children_Fantasy",4.0000,1,4.0000
126420,"Action",1.5000,1,1.5000
126426,"Drama_Sci-Fi",4.0000,1,4.0000
126430,"Action_Adventure_Drama_War",4.7500,2,9.5000
126482,"Animation_Children_Fantasy_Musical",3.0000,1,3.0000
126548,"Comedy",3.2500,6,19.5000
126577,"Animation_Comedy_Fantasy",4.0000,1,4.0000
126921,"Adventure_Animation_Children_Comedy",5.0000,1,5.0000
127052,"Comedy_Crime_Romance",3.8333,3,11.5000
127096,"Sci-Fi_Thriller",3.7500,4,15.0000
127098,"Comedy",4.3750,4,17.5000
127108,"Drama_Romance",3.8750,4,15.5000
127114,"Drama",4.0000,1,4.0000
127116,"Drama",4.5000,1,4.5000
127130,"Comedy",4.0000,1,4.0000
127132,"Drama_Thriller",2.0000,1,2.0000
127134,"Adventure_Comedy_Drama",3.5000,1,3.5000
127136,"Drama_Mystery_Thriller",3.2500,2,6.5000
127146,"Documentary",3.0000,1,3.0000
127152,"Documentary",4.2500,2,8.5000
127164,"Documentary",3.5000,1,3.5000
127172,"Documentary",3.5000,1,3.5000
127180,"Documentary",4.0000,1,4.0000
127184,"Drama",4.0000,1,4.0000
127194,"Comedy",2.0000,1,2.0000
127198,"Comedy_Drama",3.5833,6,21.5000
127202,"Drama",3.7500,6,22.5000
127204,"Comedy",3.7500,2,7.5000
127212,"Drama_Thriller",4.5000,1,4.5000
127298,"Comedy_Drama",4.0000,2,8.0000
127319,"Thriller",1.5000,1,1.5000
127323,"Action_Adventure_Sci-Fi_Thriller",1.0000,1,1.0000
127390,"Animation_Comedy",4.0000,1,4.0000
128087,"Comedy_Western",5.0000,1,5.0000
128089,"Comedy",4.5000,1,4.5000
128097,"Comedy",4.0000,1,4.0000
128099,"Comedy",4.5000,1,4.5000
128197,"Comedy_Romance",2.0000,1,2.0000
128360,"Western",3.7500,18,67.5000
128366,"Comedy",4.0000,1,4.0000
128488,"Action_Crime_Drama_Thriller",3.0000,1,3.0000
128512,"Drama_Mystery_Romance",2.0000,2,4.0000
128520,"Comedy",3.8000,5,19.0000
128542,"Action_Horror_Sci-Fi",3.5000,1,3.5000
128592,"Mystery_Thriller",1.0000,1,1.0000
128594,"Comedy_Drama_Romance",4.0000,1,4.0000
128620,"Crime_Drama_Romance",3.9000,5,19.5000
128695,"Western",2.5000,1,2.5000
128736,"Drama",3.5000,1,3.5000
128832,"Comedy_Drama_Musical_Romance",3.5000,1,3.5000
128838,"Horror",3.5000,1,3.5000
128842,"Action_Adventure_Fantasy",4.0000,1,4.0000
128852,"Comedy",3.7500,2,7.5000
128900,"Documentary",4.5000,1,4.5000
128902,"Documentary",4.0000,1,4.0000
128908,"Adventure_Comedy_Drama",4.0000,1,4.0000
128914,"Comedy",5.0000,1,5.0000
128944,"Action_Adventure_Children_Comedy_Sci-Fi",3.5000,1,3.5000
128968,"Animation_Children_Comedy",4.0000,2,8.0000
128975,"Comedy_Sci-Fi",2.8750,4,11.5000
128991,"Animation_Comedy_Sci-Fi",4.5000,1,4.5000
129011,"Comedy",3.5000,1,3.5000
129229,"Action_Adventure",2.0000,1,2.0000
129250,"(no_genres_listed)",0.5000,1,0.5000
129313,"Comedy",4.0000,1,4.0000
129333,"Horror_Thriller",1.5000,1,1.5000
129354,"Comedy_Crime_Drama_Romance",3.2500,10,32.5000
129397,"Action_Fantasy_Sci-Fi",2.7500,2,5.5000
129428,"Comedy_Drama",3.0000,2,6.0000
129514,"Comedy",5.0000,1,5.0000
129657,"Action",1.0000,1,1.0000
129659,"Drama",3.5000,1,3.5000
129737,"Comedy",2.2500,2,4.5000
129779,"Action_Animation_Sci-Fi",2.5000,1,2.5000
129937,"Action_Crime_Drama_Thriller",2.1667,3,6.5000
130050,"Drama_Fantasy_Horror_Mystery_Thriller",3.0000,1,3.0000
130052,"Drama_Horror",3.5000,1,3.5000
130073,"Children_Drama_Fantasy_Romance",4.0000,1,4.0000
130083,"Action_Crime_Drama_Thriller",2.0000,1,2.0000
130087,"Comedy_Drama_Fantasy",3.7500,2,7.5000
130444,"Adventure_Children_Fantasy_Sci-Fi",4.0000,1,4.0000
130450,"Adventure_Children_Fantasy",2.5000,3,7.5000
130452,"Comedy_Drama",4.0000,1,4.0000
130482,"Crime_Drama_Film-Noir_Mystery_Thriller",4.0000,1,4.0000
130490,"Action_Sci-Fi_Thriller",2.8333,6,17.0000
130498,"Comedy",3.5000,1,3.5000
130518,"Action_Adventure_Animation_Comedy_Sci-Fi",4.0000,3,12.0000
130520,"Adventure_Animation_Children_Comedy_Fantasy_Sci-Fi",3.2500,8,26.0000
130576,"Drama_Sci-Fi",2.3750,4,9.5000
130578,"Action_Thriller",4.0000,1,4.0000
130634,"Action_Crime_Thriller",2.7500,6,16.5000
130686,"Comedy_Horror",3.0000,1,3.0000
130840,"Horror_Romance_Sci-Fi",4.5000,1,4.5000
130842,"Action_Adventure_Sci-Fi",4.0000,1,4.0000
130970,"Comedy",5.0000,1,5.0000
130976,"Drama",4.5000,1,4.5000
130978,"Comedy_Romance",5.0000,1,5.0000
131013,"Comedy_Crime",3.1250,8,25.0000
131023,"Documentary",4.5000,1,4.5000
131098,"Animation_Children_Comedy",5.0000,1,5.0000
131104,"Comedy_Crime",4.5000,1,4.5000
131130,"Animation_Comedy",5.0000,1,5.0000
131237,"Comedy",5.0000,1,5.0000
131439,"Thriller",3.0000,1,3.0000
131480,"Action_Crime_Thriller",2.0000,1,2.0000
131578,"Comedy",2.5000,1,2.5000
131610,"Comedy_Fantasy",5.0000,1,5.0000
131656,"Adventure_Animation_Children_Comedy",3.0000,2,6.0000
131714,"Action_Adventure",3.0000,3,9.0000
131724,"Documentary",5.0000,1,5.0000
131739,"Action_Adventure_Animation",3.0000,1,3.0000
131749,"Comedy",3.0000,1,3.0000
131796,"Drama",4.0000,1,4.0000
131826,"Comedy",3.7500,2,7.5000
131920,"Comedy_Drama",4.5000,1,4.5000
131934,"Comedy",1.0000,1,1.0000
132046,"Action_Adventure_Children_Mystery_Sci-Fi",2.5000,7,17.5000
132084,"(no_genres_listed)",2.5000,1,2.5000
132153,"Comedy_Drama_Horror",5.0000,1,5.0000
132157,"Action_Comedy_Crime",2.7500,4,11.0000
132333,"Documentary_Drama",5.0000,1,5.0000
132335,"Drama",1.0000,1,1.0000
132362,"Action_Animation_Sci-Fi",3.5000,1,3.5000
132422,"Comedy_Romance_Thriller",3.2500,2,6.5000
132424,"Drama_Romance",1.7500,2,3.5000
132454,"Comedy_Crime_Drama",3.5000,1,3.5000
132462,"Action_Adventure_Drama",1.0000,1,1.0000
132488,"Comedy_Romance",2.0000,1,2.0000
132496,"Comedy_Drama",4.5000,1,4.5000
132584,"Children_Comedy",3.5000,1,3.5000
132618,"Action_Crime_Drama_Mystery_Thriller",1.5000,1,1.5000
132660,"Comedy_Romance",3.7500,2,7.5000
132796,"Action_Drama_Thriller",1.8750,4,7.5000
132800,"Comedy_Drama",3.0000,2,6.0000
132888,"Comedy",3.0000,1,3.0000
133115,"Documentary",4.0000,1,4.0000
133195,"Action_Crime_Thriller",1.5000,1,1.5000
133217,"Comedy_Crime_Sci-Fi",3.5000,1,3.5000
133281,"Comedy_Drama",2.0000,1,2.0000
133365,"Drama_Thriller",2.0000,1,2.0000
133377,"Horror_Sci-Fi_Thriller",1.5000,1,1.5000
133419,"Comedy",3.4444,9,31.0000
133545,"Comedy_Drama",1.0000,1,1.0000
133645,"Drama_Romance",4.0000,1,4.0000
133712,"Comedy_Romance",3.7500,2,7.5000
133716,"Comedy_Crime",4.5000,1,4.5000
133771,"Comedy_Romance_Sci-Fi",4.0000,7,28.0000
133780,"Comedy_Drama",3.0000,1,3.0000
133782,"Drama_Horror_Thriller",2.0000,1,2.0000
133798,"Action_Comedy",1.5000,1,1.5000
133802,"Action_Thriller_Western",4.2500,2,8.5000
133832,"Horror_Thriller",3.5000,1,3.5000
133867,"Action_Adventure_Comedy",4.5000,1,4.5000
133879,"Comedy",4.0000,1,4.0000
134004,"Comedy_Romance",5.0000,1,5.0000
134019,"Animation",3.5000,1,3.5000
134021,"Comedy_Drama_Romance",2.5000,1,2.5000
134041,"Comedy_Drama_Romance",4.0000,1,4.0000
134095,"Animation_Drama",5.0000,1,5.0000
134109,"Comedy",5.0000,1,5.0000
134130,"Adventure_Drama_Sci-Fi",4.0000,48,192.0000
134158,"Thriller",1.5000,1,1.5000
134170,"Action_Comedy_Fantasy_Sci-Fi",3.7143,7,26.0000
134184,"Comedy",4.5000,1,4.5000
134214,"Drama",3.5000,4,14.0000
134246,"Action_Thriller",0.5000,1,0.5000
134248,"Documentary",3.0000,1,3.0000
134252,"Comedy_Drama_Fantasy",4.5000,1,4.5000
134326,"Comedy",4.5000,1,4.5000
134334,"Comedy",4.5000,1,4.5000
134368,"Action_Comedy_Crime",3.6875,16,59.0000
134393,"Comedy_Romance",3.2000,10,32.0000
134515,"Adventure_Crime_Drama",3.0000,1,3.0000
134524,"Documentary",3.0000,1,3.0000
134528,"Comedy_Drama_Romance",0.5000,1,0.5000
134775,"Action_Adventure_Drama",2.0000,1,2.0000
134783,"Comedy",2.0000,1,2.0000
134796,"Documentary",5.0000,1,5.0000
134808,"Comedy",2.0000,1,2.0000
134847,"Comedy",5.0000,1,5.0000
134849,"Animation_Children_Comedy",4.0000,1,4.0000
134853,"Adventure_Animation_Children_Comedy_Drama_Fantasy",3.8140,43,164.0000
134859,"Documentary",3.5000,1,3.5000
134861,"(no_genres_listed)",2.5000,1,2.5000
134881,"Drama",4.3333,3,13.0000
135133,"Adventure_Sci-Fi",3.7000,10,37.0000
135137,"Action_Comedy_Sci-Fi",2.5833,6,15.5000
135143,"Fantasy",3.6786,14,51.5000
135198,"Comedy_Drama",4.0000,1,4.0000
135216,"Adventure_Children_Comedy_Sci-Fi",0.5000,1,0.5000
135288,"Drama_Mystery",3.0000,1,3.0000
135436,"Animation_Comedy",3.0714,7,21.5000
135456,"Action_Animation_Crime_Sci-Fi",3.2500,2,6.5000
135518,"Action_Mystery_Sci-Fi_Thriller",2.7500,2,5.5000
135532,"Action_Adventure_Fantasy",3.3333,3,10.0000
135534,"Comedy_Fantasy_Horror",3.5000,1,3.5000
135536,"Action_Crime_Sci-Fi",2.9167,12,35.0000
135567,"Action_Adventure_Sci-Fi",2.3750,4,9.5000
135569,"Action_Adventure_Sci-Fi",3.4667,15,52.0000
135777,"Children_Comedy",4.5000,1,4.5000
135787,"Documentary",3.5000,1,3.5000
135803,"Action",3.5000,1,3.5000
135815,"Action_Drama",4.0000,1,4.0000
135861,"Comedy",2.7778,9,25.0000
135885,"Comedy_Sci-Fi",3.0000,1,3.0000
135887,"Adventure_Animation_Children_Comedy",3.1667,15,47.5000
135937,"Comedy_Thriller",3.0000,1,3.0000
136012,"Action_Thriller",1.5000,1,1.5000
136016,"Adventure_Animation_Children_Comedy_Fantasy",3.0000,4,12.0000
136018,"Crime_Drama",2.5000,3,7.5000
136020,"Action_Adventure_Crime",3.0588,17,52.0000
136024,"Action_Animation_Crime",3.0000,1,3.0000
136297,"Action_Animation",0.5000,1,0.5000
136305,"Horror_Sci-Fi",1.0000,2,2.0000
136341,"Animation_Children_Comedy",5.0000,1,5.0000
136353,"Animation_Children_Comedy",5.0000,1,5.0000
136355,"Animation_Children_Comedy",5.0000,1,5.0000
136359,"Animation_Children_Comedy",5.0000,1,5.0000
136443,"Comedy",1.5000,1,1.5000
136445,"Comedy",5.0000,1,5.0000
136447,"Comedy",5.0000,1,5.0000
136449,"Action_Animation_Sci-Fi",3.7500,2,7.5000
136469,"Comedy",5.0000,1,5.0000
136471,"Comedy_Documentary",3.5000,1,3.5000
136503,"Animation_Children_Comedy",5.0000,1,5.0000
136511,"Comedy",2.0000,1,2.0000
136540,"Comedy",4.5000,1,4.5000
136556,"Animation_Children",5.0000,1,5.0000
136562,"Drama",3.7500,6,22.5000
136564,"Drama",2.5000,1,2.5000
136598,"Adventure_Comedy",3.4167,6,20.5000
136602,"Horror_Thriller",3.0000,2,6.0000
136654,"Drama",1.5000,1,1.5000
136664,"Crime_Drama",1.0000,1,1.0000
136666,"Comedy",2.2500,2,4.5000
136778,"Comedy_Drama",2.0000,1,2.0000
136786,"Thriller",1.5000,1,1.5000
136800,"Action_Adventure_Sci-Fi",1.5000,1,1.5000
136816,"Action_Comedy",2.5000,1,2.5000
136834,"Horror",5.0000,1,5.0000
136838,"Comedy_Romance",2.5000,1,2.5000
136840,"Comedy_Drama_Romance",3.5000,1,3.5000
136850,"Crime_Drama_Thriller",5.0000,1,5.0000
136859,"Action_Adventure_Romance_Sci-Fi",1.5000,1,1.5000
136864,"Action_Adventure_Fantasy_Sci-Fi",2.3438,16,37.5000
136912,"Adventure",2.0000,1,2.0000
136958,"Horror",2.0000,1,2.0000
137218,"Drama",2.5000,1,2.5000
137337,"Documentary",3.5000,4,14.0000
137345,"Crime_Thriller",2.0000,1,2.0000
137517,"Drama_Fantasy",0.5000,1,0.5000
137595,"Comedy_Drama",4.0000,1,4.0000
137857,"Adventure_Drama_Fantasy",3.6364,11,40.0000
137859,"Action_Adventure_Animation",4.0000,1,4.0000
137863,"Action_Adventure_Animation_Fantasy",4.0000,1,4.0000
138036,"Action_Adventure_Comedy",3.4722,18,62.5000
138186,"Crime_Drama_Horror",0.5000,1,0.5000
138204,"Comedy",4.0000,2,8.0000
138208,"Adventure_Drama_Thriller",3.0000,2,6.0000
138210,"Drama",3.3000,5,16.5000
138396,"Comedy_Drama",3.5000,1,3.5000
138546,"Comedy",1.5000,1,1.5000
138610,"Horror_Thriller",1.5000,1,1.5000
138632,"Action_Crime_Drama_Sci-Fi",5.0000,1,5.0000
138702,"Animation_Children_Comedy_Drama_Romance",3.0000,1,3.0000
138798,"Comedy",0.5000,1,0.5000
138835,"Adventure_Animation_Comedy",5.0000,1,5.0000
138966,"Animation",5.0000,1,5.0000
139052,"Drama_Mystery_Thriller",2.0000,1,2.0000
139130,"Action_Adventure_Animation_Drama_Fantasy",2.5000,1,2.5000
139157,"Comedy_Horror_Thriller",4.5000,1,4.5000
139385,"Adventure_Drama",3.9032,31,121.0000
139415,"Crime_Drama",3.0000,1,3.0000
139511,"Horror",3.0000,1,3.0000
139640,"Animation",5.0000,1,5.0000
139642,"Action_Drama",2.8333,6,17.0000
139644,"Crime_Drama_Mystery",3.5455,11,39.0000
139655,"Drama_Fantasy_Horror_Thriller",3.0000,1,3.0000
139717,"Crime_Thriller",1.2500,2,2.5000
139747,"Romance",3.5000,1,3.5000
139855,"Animation_Comedy_Fantasy",3.2500,2,6.5000
139857,"Thriller",1.5000,1,1.5000
139859,"Action_Animation_Sci-Fi_Thriller",2.5000,1,2.5000
139915,"Comedy_Romance",2.2500,2,4.5000
139994,"Comedy_Horror",4.0000,1,4.0000
140016,"Horror",2.0000,1,2.0000
140038,"Comedy",4.5000,1,4.5000
140110,"Comedy",3.6538,13,47.5000
140133,"Comedy_Horror",5.0000,1,5.0000
140162,"Drama_Romance",4.5000,1,4.5000
140174,"Drama",3.5625,8,28.5000
140237,"Drama",2.0000,1,2.0000
140247,"Drama_Horror",3.2500,4,13.0000
140265,"Comedy",5.0000,1,5.0000
140267,"Horror",4.0000,1,4.0000
140289,"Comedy_Drama",4.0000,1,4.0000
140301,"Comedy_Romance",3.0000,1,3.0000
140359,"Adventure_Children_Sci-Fi",4.0000,4,16.0000
140481,"Animation_Comedy_Sci-Fi",4.5000,1,4.5000
140523,"Comedy_Horror",3.5000,1,3.5000
140525,"Crime_Drama_Mystery",1.5000,1,1.5000
140541,"Animation_Comedy_Sci-Fi",4.0000,1,4.0000
140561,"Comedy_Documentary",4.0000,1,4.0000
140627,"Drama_Romance_War",5.0000,1,5.0000
140711,"Action_Comedy_Sci-Fi_Thriller",2.6667,6,16.0000
140715,"Drama",4.2143,7,29.5000
140725,"Crime_Thriller",3.5000,2,7.0000
140737,"Action_Fantasy_Mystery",3.5000,1,3.5000
140816,"Comedy_Drama",4.5000,1,4.5000
140850,"Crime_Drama_Mystery_Thriller",2.0000,1,2.0000
140852,"Horror_Sci-Fi",1.0000,1,1.0000
140928,"Comedy_Drama",3.2000,5,16.0000
140956,"Action_Sci-Fi_Thriller",3.5000,4,14.0000
141004,"Drama_Horror_Sci-Fi",3.2500,2,6.5000
141131,"(no_genres_listed)",2.5000,1,2.5000
141400,"Action",4.0000,1,4.0000
141408,"Action_Comedy_Horror",3.7500,2,7.5000
141422,"Drama",2.5000,1,2.5000
141513,"Comedy",4.0000,1,4.0000
141544,"Action_Adventure_Sci-Fi",3.5000,3,10.5000
141646,"Comedy_Drama",3.5000,1,3.5000
141668,"Drama",0.5000,1,0.5000
141688,"Crime_Thriller",3.5000,2,7.0000
141718,"Comedy_Horror",5.0000,1,5.0000
141749,"Drama",3.7500,2,7.5000
141799,"Comedy_Horror",3.5000,1,3.5000
141810,"Comedy_Drama",4.0000,1,4.0000
141816,"Adventure_Comedy",5.0000,1,5.0000
141818,"Comedy_Drama_Fantasy_Romance",4.5000,1,4.5000
141820,"Comedy",4.0000,1,4.0000
141830,"Adventure_Comedy",3.2500,2,6.5000
141836,"Comedy",4.5000,1,4.5000
141844,"Adventure_Comedy",4.5000,1,4.5000
141846,"Documentary",4.0000,1,4.0000
141866,"(no_genres_listed)",3.3333,3,10.0000
141890,"Drama_War",3.0000,2,6.0000
141928,"Comedy_Horror",5.0000,1,5.0000
141994,"Children_Comedy",0.5000,1,0.5000
142020,"Comedy",5.0000,1,5.0000
142056,"Action_Adventure_Animation",3.0000,1,3.0000
142074,"Crime_Horror_Thriller",1.5000,1,1.5000
142115,"Documentary",4.7500,2,9.5000
142196,"Comedy_Horror",4.5000,1,4.5000
142222,"Drama",3.1250,4,12.5000
142366,"Horror_Thriller",3.0000,1,3.0000
142372,"Comedy_Drama",2.7500,2,5.5000
142420,"Action_Drama_Sci-Fi",3.0000,2,6.0000
142422,"Comedy",4.2500,4,17.0000
142424,"Drama_Sci-Fi",2.0000,1,2.0000
142444,"Comedy_Horror_Mystery",5.0000,1,5.0000
142448,"Adventure_Drama_Thriller",3.0833,6,18.5000
142456,"(no_genres_listed)",4.0000,2,8.0000
142488,"Thriller",4.1579,19,79.0000
142507,"Drama",2.5000,1,2.5000
142509,"Action_Adventure_Sci-Fi",3.7500,2,7.5000
142536,"Drama",2.0000,3,6.0000
142550,"Action_Comedy",4.5000,1,4.5000
142558,"Comedy",3.0000,1,3.0000
142598,"Horror",4.0000,1,4.0000
142602,"Comedy",1.0000,1,1.0000
142831,"Comedy",4.5000,1,4.5000
142961,"Comedy_Crime_Thriller",2.5000,1,2.5000
142997,"Animation_Comedy",2.8750,4,11.5000
143001,"Crime",1.5000,1,1.5000
143031,"Comedy_Drama_Romance",5.0000,1,5.0000
143245,"Animation_Fantasy",2.2500,2,4.5000
143255,"Mystery_Sci-Fi_Thriller",1.5000,1,1.5000
143257,"Comedy_Drama",3.0000,2,6.0000
143355,"Action_Adventure_Fantasy",3.3077,13,43.0000
143365,"Drama_Sci-Fi_Thriller",2.5000,1,2.5000
143367,"Drama_Thriller",3.7500,2,7.5000
143385,"Drama_Thriller",3.4375,8,27.5000
143410,"(no_genres_listed)",2.0000,1,2.0000
143458,"Drama_Mystery_Thriller",4.0000,1,4.0000
143472,"Action_Horror_Thriller",1.5000,1,1.5000
143511,"Documentary",5.0000,1,5.0000
143525,"Comedy_Drama",4.0000,1,4.0000
143559,"Comedy_Crime_Fantasy",5.0000,1,5.0000
143859,"Comedy",2.8125,8,22.5000
143896,"Documentary",4.5000,1,4.5000
143969,"Comedy",2.8333,3,8.5000
144210,"Documentary",4.0000,1,4.0000
144222,"Comedy",3.0000,1,3.0000
144262,"Comedy_Romance",2.0000,1,2.0000
144352,"Action_Crime_Drama",0.5000,1,0.5000
144478,"Comedy_Drama",4.5000,1,4.5000
144522,"Action_Horror_Thriller",2.0000,1,2.0000
144606,"Comedy_Crime_Drama_Romance_Thriller",4.0000,1,4.0000
144620,"Adventure_Comedy_Horror",2.0000,2,4.0000
144714,"Drama_Thriller",1.5000,1,1.5000
144716,"Comedy",2.0000,1,2.0000
144734,"Comedy_Horror_Sci-Fi",4.5000,1,4.5000
144976,"Horror_Western",4.5000,2,9.0000
145080,"Animation_Horror_Mystery",2.5000,1,2.5000
145150,"Comedy_Drama_Thriller",3.0000,1,3.0000
145283,"Documentary",3.5000,1,3.5000
145418,"Drama",4.0000,1,4.0000
145491,"Children_Comedy_Drama",3.5000,1,3.5000
145724,"Sci-Fi",0.5000,1,0.5000
145745,"Crime_Drama",2.5000,1,2.5000
145839,"Drama",2.5000,3,7.5000
145935,"Adventure_Animation_Children_Comedy",1.5000,1,1.5000
145951,"Action_Thriller",0.5000,1,0.5000
145994,"Comedy",5.0000,1,5.0000
146024,"Comedy_Romance_Western",4.0000,1,4.0000
146028,"Crime_Mystery",4.0000,1,4.0000
146210,"Comedy",3.0000,1,3.0000
146244,"Comedy_Drama_Romance",4.0000,1,4.0000
146309,"Action_Adventure_Animation",4.0000,1,4.0000
146656,"Drama",3.7500,8,30.0000
146662,"Adventure_Animation_Comedy",5.0000,1,5.0000
146682,"Documentary",4.0000,1,4.0000
146684,"Animation_Children_Comedy",5.0000,1,5.0000
146688,"Fantasy_Mystery_Thriller",2.0000,1,2.0000
146730,"Action_Drama_Thriller",2.0000,1,2.0000
146986,"Comedy",4.0000,1,4.0000
147002,"Drama_Romance",4.0000,1,4.0000
147142,"Children_Comedy",3.0000,1,3.0000
147196,"Comedy_Romance",5.0000,1,5.0000
147250,"(no_genres_listed)",5.0000,1,5.0000
147282,"Comedy",4.0000,1,4.0000
147286,"Crime_Mystery",5.0000,1,5.0000
147300,"Crime_Mystery",5.0000,1,5.0000
147326,"Crime_Mystery",5.0000,1,5.0000
147328,"Crime",5.0000,1,5.0000
147330,"Crime",5.0000,1,5.0000
147372,"Adventure_Drama_Fantasy_Sci-Fi",3.7500,2,7.5000
147374,"Adventure_Drama",4.1667,3,12.5000
147376,"Sci-Fi",4.7500,2,9.5000
147378,"Adventure_Children_Drama_Sci-Fi",3.0000,4,12.0000
147380,"Adventure_Children_Drama_Sci-Fi",2.8750,4,11.5000
147382,"Action_Sci-Fi",4.5000,3,13.5000
147384,"Sci-Fi",4.0000,4,16.0000
147410,"Comedy_Drama",5.0000,1,5.0000
147657,"Action",4.0000,1,4.0000
147662,"Action_Adventure",3.0000,1,3.0000
147936,"Comedy_Drama",4.5000,1,4.5000
148166,"Documentary",3.5000,1,3.5000
148172,"Adventure_Sci-Fi_Thriller",2.5000,2,5.0000
148238,"Comedy",2.5000,1,2.5000
148424,"Comedy_Drama",3.7500,2,7.5000
148482,"Drama",3.0000,1,3.0000
148592,"Comedy",3.0000,1,3.0000
148626,"Drama",3.9615,26,103.0000
148632,"Comedy",4.5000,1,4.5000
148652,"Comedy_Western",3.2500,2,6.5000
148667,"Comedy",3.5000,1,3.5000
148671,"Crime_Horror",4.5000,2,9.0000
148675,"Children_Fantasy",2.0000,1,2.0000
148709,"Thriller",2.0000,1,2.0000
148775,"Adventure_Children_Comedy_Drama_Fantasy_Sci-Fi",4.0000,1,4.0000
148881,"Animation_Comedy",4.5000,2,9.0000
148888,"Comedy",2.5000,3,7.5000
148956,"Comedy_Romance",3.1250,4,12.5000
148978,"Animation_Fantasy_Horror_Mystery",4.0000,1,4.0000
148982,"Horror",4.0000,1,4.0000
149011,"Comedy_Drama_Horror",3.5000,1,3.5000
149144,"Horror_Sci-Fi",4.0000,1,4.0000
149146,"Horror_Sci-Fi",4.0000,1,4.0000
149330,"(no_genres_listed)",4.0000,1,4.0000
149334,"Drama_Thriller",3.0000,1,3.0000
149350,"Comedy_Horror",5.0000,1,5.0000
149352,"Comedy",2.6667,6,16.0000
149354,"Children_Comedy",2.5000,7,17.5000
149380,"Romance",1.5000,1,1.5000
149406,"Action_Adventure_Animation",3.3750,8,27.0000
149508,"Comedy_Romance",5.0000,1,5.0000
149566,"Comedy_Romance",5.0000,1,5.0000
149590,"Thriller",2.5000,1,2.5000
149612,"Action_Drama_Thriller",2.0000,1,2.0000
149830,"Comedy_Horror_Romance_Thriller",4.5000,1,4.5000
149902,"Action_Sci-Fi_Thriller",2.0000,1,2.0000
150254,"Horror",2.0000,1,2.0000
150401,"Action_Crime",3.0000,2,6.0000
150548,"Action_Crime_Drama_Mystery_Thriller",3.8500,10,38.5000
150554,"Adventure_Children_Comedy_Fantasy",5.0000,1,5.0000
150596,"Comedy_Drama_Sci-Fi",4.2500,2,8.5000
150604,"Comedy",2.5000,1,2.5000
150696,"Documentary",4.5000,1,4.5000
150993,"Action_Comedy",4.0000,1,4.0000
151311,"Comedy",3.0000,1,3.0000
151315,"Action_Comedy",2.0000,3,6.0000
151317,"Comedy",2.0000,1,2.0000
151455,"Comedy",2.8333,3,8.5000
151479,"Action_Fantasy_Sci-Fi",1.5000,1,1.5000
151501,"Drama",1.5000,1,1.5000
151557,"Drama",2.5000,1,2.5000
151559,"Horror_Thriller",2.0000,1,2.0000
151653,"Comedy_Drama_Fantasy",1.5000,1,1.5000
151687,"Children_Drama",0.5000,1,0.5000
151695,"Drama_Sci-Fi_Thriller",4.0000,1,4.0000
151739,"Comedy",2.8750,4,11.5000
151745,"Horror_Sci-Fi",0.5000,1,0.5000
151759,"Documentary",2.5000,1,2.5000
151763,"Mystery",4.0000,2,8.0000
151769,"Animation",5.0000,1,5.0000
151777,"Drama_Thriller",3.0000,1,3.0000
151781,"Action_Animation_Crime_Sci-Fi_Thriller",3.5000,1,3.5000
152037,"(no_genres_listed)",2.0000,2,4.0000
152063,"Adventure_Fantasy",0.5000,1,0.5000
152065,"Adventure_Drama",3.5000,1,3.5000
152071,"Drama",1.5000,1,1.5000
152077,"Thriller",3.6786,14,51.5000
152079,"Action_Crime_Thriller",2.0000,2,4.0000
152081,"Action_Adventure_Animation_Children_Comedy",3.8906,32,124.5000
152083,"Comedy_War",3.3333,3,10.0000
152085,"Drama",2.5000,1,2.5000
152091,"Comedy",3.1250,4,12.5000
152105,"Comedy",4.5000,1,4.5000
152173,"Horror",4.0000,1,4.0000
152270,"Drama",3.5000,1,3.5000
152284,"Drama_Romance",3.5000,1,3.5000
152372,"Horror",3.5000,1,3.5000
152591,"Action",4.0000,1,4.0000
152658,"Children",1.5000,1,1.5000
152711,"Documentary",5.0000,1,5.0000
152970,"Adventure_Comedy",4.3750,4,17.5000
153070,"Comedy_Drama_Fantasy",3.5000,1,3.5000
153236,"Animation",3.0000,1,3.0000
153386,"Children_Comedy_Fantasy",3.0000,1,3.0000
153408,"Comedy_Drama_Fantasy",4.0000,1,4.0000
154065,"Comedy",2.0000,1,2.0000
154358,"Documentary",4.0000,1,4.0000
154975,"Comedy_Documentary",4.0000,1,4.0000
155064,"Drama_Horror_Mystery",3.0000,2,6.0000
155168,"Comedy",4.0000,1,4.0000
155288,"Drama_Thriller_War",2.8333,3,8.5000
155358,"Action_Adventure_Thriller",2.0000,1,2.0000
155509,"Action_Comedy_Romance",3.5000,3,10.5000
155589,"(no_genres_listed)",3.0000,1,3.0000
155659,"Comedy_Drama",4.0000,1,4.0000
155743,"Comedy",2.0000,1,2.0000
155774,"Adventure",3.5000,1,3.5000
155812,"Comedy",3.2500,2,6.5000
155820,"Comedy",2.5000,2,5.0000
155892,"Comedy",2.0000,1,2.0000
156025,"Adventure_Animation_Children_Comedy",5.0000,1,5.0000
156371,"Comedy",4.1667,3,12.5000
156387,"Drama",3.8333,3,11.5000
156553,"Animation_Comedy_Drama",2.5000,1,2.5000
156605,"(no_genres_listed)",4.5000,1,4.5000
156607,"Action_Adventure_Drama_Fantasy",1.0000,3,3.0000
156609,"Comedy",2.6000,5,13.0000
156675,"Mystery_Sci-Fi",2.0000,1,2.0000
156706,"Crime_Thriller",2.5000,1,2.5000
156726,"Thriller",2.6667,3,8.0000
156781,"Comedy",4.0000,1,4.0000
156783,"Comedy",2.5000,1,2.5000
157108,"Comedy_Western",4.5000,1,4.5000
157110,"Comedy_Crime",4.5000,1,4.5000
157122,"Drama",3.0000,1,3.0000
157130,"Drama_Romance_Thriller",2.0000,1,2.0000
157172,"Action_Fantasy",0.5000,1,0.5000
157200,"Drama_Thriller",2.2500,2,4.5000
157270,"Comedy",2.5000,1,2.5000
157296,"Adventure_Animation_Comedy",3.5769,13,46.5000
157312,"Comedy",2.6667,3,8.0000
157340,"Animation_Comedy",2.5000,1,2.5000
157369,"Comedy_Drama",4.0000,1,4.0000
157407,"Action_Crime_Drama_Thriller",1.5000,1,1.5000
157432,"Action_Crime",1.0000,1,1.0000
157699,"Drama_Thriller",3.8333,6,23.0000
157775,"Animation_Comedy",5.0000,1,5.0000
157865,"Action_Adventure_Animation_Children_Comedy_Sci-Fi",1.5000,1,1.5000
158022,"Comedy",1.5000,1,1.5000
158027,"Drama_Sci-Fi",5.0000,1,5.0000
158035,"Action_Animation_Comedy",3.5000,1,3.5000
158238,"Crime_Mystery_Thriller",3.8333,15,57.5000
158254,"Action_Comedy",1.5000,1,1.5000
158388,"Sci-Fi",2.5000,1,2.5000
158398,"Comedy",5.0000,1,5.0000
158402,"Action",2.5000,1,2.5000
158528,"Drama_Thriller",2.5000,1,2.5000
158721,"Action_Comedy_Thriller",3.5000,1,3.5000
158783,"Drama_Romance_Thriller",2.6667,3,8.0000
158813,"Adventure_Children_Fantasy",2.0000,4,8.0000
158830,"Children_Fantasy",2.5000,1,2.5000
158842,"Documentary",3.5000,1,3.5000
158872,"Animation_Comedy",3.6429,7,25.5000
158874,"Action_Drama",3.0000,1,3.0000
158882,"Comedy_Drama_Romance",5.0000,1,5.0000
158956,"Action_Horror_Sci-Fi",2.5000,2,5.0000
158966,"Drama",4.5000,5,22.5000
158972,"Drama",3.6667,3,11.0000
159061,"Mystery_Thriller",3.0000,1,3.0000
159069,"Comedy",4.5000,1,4.5000
159077,"Comedy_Drama",2.5000,1,2.5000
159093,"Action_Comedy_Thriller",3.6364,11,40.0000
159161,"(no_genres_listed)",4.5000,1,4.5000
159193,"Comedy_Drama_Romance",3.0000,1,3.0000
159403,"Adventure_Animation_Fantasy_Horror_Sci-Fi",3.0000,1,3.0000
159415,"Comedy_Drama_Romance",3.2500,2,6.5000
159441,"Comedy",3.5000,2,7.0000
159510,"Horror",2.0000,1,2.0000
159690,"Action_Adventure_Comedy",2.0000,1,2.0000
159717,"Drama",3.7500,2,7.5000
159755,"Comedy",2.7500,2,5.5000
159779,"(no_genres_listed)",4.0000,1,4.0000
159811,"Animation_Drama_Fantasy",5.0000,1,5.0000
159817,"Documentary",4.2143,7,29.5000
159849,"Comedy",2.5000,1,2.5000
159858,"Horror",2.2500,2,4.5000
159976,"Drama",4.5000,1,4.5000
160080,"Action_Comedy_Horror_Sci-Fi",3.1250,8,25.0000
160271,"Action_Comedy",3.6250,4,14.5000
160289,"Documentary",4.5000,1,4.5000
160341,"Action_Thriller",2.5000,1,2.5000
160400,"Drama",3.0000,1,3.0000
160422,"Drama_War",3.0000,1,3.0000
160438,"Action",2.7222,9,24.5000
160440,"Thriller",1.5000,1,1.5000
160527,"Action_Crime_Drama",4.5000,1,4.5000
160563,"Action_Adventure",3.0833,6,18.5000
160565,"Action_Horror_Sci-Fi",2.7500,2,5.5000
160567,"Comedy",3.3333,3,10.0000
160569,"Adventure_Animation_Children_Comedy",1.0000,1,1.0000
160571,"Horror",3.0000,2,6.0000
160573,"Adventure_Children_Fantasy",3.0000,1,3.0000
160644,"Drama",5.0000,1,5.0000
160646,"Drama",2.5000,1,2.5000
160684,"Action",3.5000,1,3.5000
160718,"Animation",4.5000,2,9.0000
160730,"Action_Drama_Thriller",2.0000,1,2.0000
160836,"Action_Drama_Thriller",3.0000,1,3.0000
160848,"Animation",4.5000,1,4.5000
160872,"Horror",0.5000,1,0.5000
160954,"Drama_Thriller",2.6250,4,10.5000
160978,"Horror_Sci-Fi",1.0000,1,1.0000
160980,"Drama",3.1667,6,19.0000
161008,"(no_genres_listed)",2.5000,1,2.5000
161024,"Comedy",4.5000,1,4.5000
161032,"Action_Drama",2.5000,1,2.5000
161044,"Sci-Fi",3.0000,1,3.0000
161127,"Crime_Drama",3.7500,2,7.5000
161131,"Comedy",3.6250,8,29.0000
161290,"Action",1.0000,1,1.0000
161354,"Action_Animation_Crime_Drama",3.0000,1,3.0000
161580,"Comedy",3.8333,3,11.5000
161582,"Crime_Drama",3.5625,8,28.5000
161594,"Action_Adventure_Animation_Drama_Fantasy_Sci-Fi",3.5000,1,3.5000
161634,"Thriller",3.3000,5,16.5000
161830,"Drama_Horror_Thriller",1.0000,1,1.0000
161918,"Action_Adventure_Horror_Sci-Fi",1.5000,1,1.5000
161922,"Comedy",3.2500,2,6.5000
161966,"Thriller",4.0000,1,4.0000
162082,"Action_Thriller",3.5000,1,3.5000
162344,"Comedy",5.0000,1,5.0000
162350,"Action_Western",3.5833,6,21.5000
162414,"Drama",5.0000,1,5.0000
162478,"Action_Comedy_Crime",4.0000,3,12.0000
162578,"Adventure_Animation_Children_Fantasy",4.0000,6,24.0000
162590,"Comedy_Romance",1.0000,1,1.0000
162598,"Drama",3.5000,1,3.5000
162600,"Fantasy",3.0000,3,9.0000
162602,"Thriller",4.5000,1,4.5000
162606,"Crime_Drama_Thriller",3.0000,6,18.0000
162828,"Crime_Drama_Thriller",2.5000,1,2.5000
162968,"Action_Animation_Mystery",4.0000,1,4.0000
162982,"Animation_Drama_Sci-Fi",3.0000,1,3.0000
163056,"Action_Adventure_Fantasy_Sci-Fi",4.0000,1,4.0000
163072,"Animation_Children",5.0000,1,5.0000
163112,"Animation",5.0000,1,5.0000
163134,"Animation_Drama_Fantasy_Romance",4.0000,3,12.0000
163386,"Animation",5.0000,1,5.0000
163527,"Comedy",4.0000,1,4.0000
163639,"Animation",4.0000,1,4.0000
163645,"Drama_War",3.9375,8,31.5000
163653,"Comedy",3.0000,1,3.0000
163809,"Adventure_Animation_Drama",2.5000,1,2.5000
163925,"Animation_Comedy",5.0000,1,5.0000
163937,"Horror_Thriller",3.5000,1,3.5000
163981,"Horror",3.5000,1,3.5000
163985,"Sci-Fi_Thriller",4.5000,1,4.5000
164179,"Sci-Fi",3.9808,26,103.5000
164200,"Animation_Children_Comedy",4.0000,2,8.0000
164226,"Action_Adventure_Comedy_Fantasy_Sci-Fi_Thriller",4.5000,1,4.5000
164280,"Drama_Fantasy",3.5000,1,3.5000
164367,"Drama_Horror_Sci-Fi_Thriller",5.0000,1,5.0000
164375,"Comedy",1.5000,1,1.5000
164540,"Documentary",3.5000,1,3.5000
164647,"Comedy_Romance",2.5000,1,2.5000
164655,"Documentary",2.0000,1,2.0000
164707,"Children_Comedy_Drama",4.0000,1,4.0000
164753,"Romance",2.0000,1,2.0000
164881,"Action_Sci-Fi",1.5000,1,1.5000
164909,"Comedy_Drama_Romance",3.3889,9,30.5000
164917,"Documentary",4.5000,2,9.0000
165075,"Drama",2.5000,1,2.5000
165101,"Mystery_Thriller",2.8750,4,11.5000
165103,"Comedy",3.7500,2,7.5000
165139,"Comedy",2.0000,1,2.0000
165343,"Comedy_Horror_Sci-Fi_Thriller",1.5000,1,1.5000
165347,"Action_Crime_Drama_Mystery_Thriller",2.0000,1,2.0000
165483,"Comedy",4.0000,1,4.0000
165489,"(no_genres_listed)",2.5000,1,2.5000
165529,"Drama",2.0000,1,2.0000
165549,"Drama",2.9000,5,14.5000
165551,"Drama",4.5000,1,4.5000
165635,"Thriller",1.0000,1,1.0000
165639,"Comedy_Fantasy_Sci-Fi",3.8333,3,11.5000
165645,"Comedy",0.5000,1,0.5000
165671,"Documentary",4.5000,1,4.5000
165843,"Documentary",4.0000,1,4.0000
165947,"Action_Comedy",3.2500,2,6.5000
165959,"Animation_Comedy_Drama",5.0000,1,5.0000
165969,"Documentary",4.0000,2,8.0000
166015,"Comedy_Drama",3.5000,1,3.5000
166024,"(no_genres_listed)",4.7500,2,9.5000
166183,"Adventure_Animation_Children",5.0000,1,5.0000
166203,"Adventure_Children_Fantasy_Sci-Fi",4.0000,1,4.0000
166291,"Animation_Drama_Romance",4.0000,2,8.0000
166461,"Adventure_Animation_Children_Comedy_Fantasy",3.4500,10,34.5000
166492,"Comedy",3.5000,3,10.5000
166526,"Adventure_Sci-Fi",1.0000,1,1.0000
166528,"Action_Adventure_Fantasy_Sci-Fi",3.9259,27,106.0000
166534,"Drama_Horror_Thriller",3.3333,6,20.0000
166558,"Action_Horror",3.0000,1,3.0000
166568,"Thriller",4.5000,2,9.0000
166635,"Adventure_Drama_Romance_Sci-Fi",3.6667,6,22.0000
166643,"Drama",3.8000,10,38.0000
166705,"Drama",3.0000,1,3.0000
166946,"Drama",4.2500,2,8.5000
167018,"Comedy",3.1250,4,12.5000
167036,"Animation_Children_Comedy",3.7500,4,15.0000
167064,"Documentary",5.0000,1,5.0000
167296,"Drama",0.5000,1,0.5000
167370,"Action_Adventure_Sci-Fi",2.5000,2,5.0000
167380,"Comedy_Drama",4.5000,1,4.5000
167538,"Horror",1.0000,1,1.0000
167570,"(no_genres_listed)",4.0000,1,4.0000
167634,"Comedy",4.5000,1,4.5000
167706,"Documentary",2.5000,1,2.5000
167732,"Comedy_Drama",3.5000,1,3.5000
167746,"Action_Animation_Comedy",3.7143,7,26.0000
167772,"Animation_Comedy",1.5000,1,1.5000
167790,"Children_Comedy_Drama",3.5000,1,3.5000
167854,"Comedy",4.5000,1,4.5000
168026,"Action_Adventure_Fantasy_Sci-Fi",4.0000,1,4.0000
168090,"Animation_Fantasy_Mystery",4.0000,1,4.0000
168144,"Comedy",4.0000,1,4.0000
168174,"Comedy",3.0000,1,3.0000
168218,"Animation_Fantasy_Mystery",4.5000,1,4.5000
168248,"Action_Crime_Thriller",4.1429,7,29.0000
168250,"Horror",3.6333,15,54.5000
168252,"Action_Sci-Fi",4.2800,25,107.0000
168254,"Action_Adventure_Fantasy",3.1250,4,12.5000
168266,"Crime_Drama",3.7500,4,15.0000
168326,"Comedy_Romance",4.0000,4,16.0000
168350,"Drama",2.5000,1,2.5000
168358,"Sci-Fi_Thriller",2.5000,1,2.5000
168366,"Fantasy_Romance",3.5000,2,7.0000
168418,"Animation_Children_Comedy",3.8000,5,19.0000
168456,"Action_Adventure_Drama",2.0000,1,2.0000
168492,"Drama_Romance",3.7500,4,15.0000
168608,"Drama",3.0000,1,3.0000
168612,"Action_Drama_Sci-Fi",3.7500,2,7.5000
168632,"Comedy",4.0000,1,4.0000
168712,"Drama_Romance",1.0000,1,1.0000
168846,"Comedy",4.5000,1,4.5000
169034,"(no_genres_listed)",4.5000,1,4.5000
169180,"Thriller",2.5000,1,2.5000
169670,"Horror",1.5000,1,1.5000
169904,"Sci-Fi",2.0000,1,2.0000
169912,"Comedy",3.0000,2,6.0000
169958,"Drama_Mystery",1.0000,1,1.0000
169982,"Action_Adventure_Sci-Fi",3.0000,1,3.0000
169984,"Action_Horror_Sci-Fi_Thriller",2.8000,5,14.0000
169992,"Action_Crime_Drama",3.5000,1,3.5000
170289,"Action_Horror_Sci-Fi",1.0000,1,1.0000
170297,"Action_Animation_Sci-Fi",2.0000,1,2.0000
170355,"Drama_Mystery_Romance",3.7500,2,7.5000
170357,"Comedy",4.0000,1,4.0000
170399,"Action_Comedy_Drama",4.0000,1,4.0000
170401,"Comedy_Drama",3.0000,1,3.0000
170411,"Comedy",4.0000,1,4.0000
170551,"Comedy",2.5000,1,2.5000
170597,"Animation",5.0000,1,5.0000
170697,"Drama",4.1250,4,16.5000
170705,"Action_Drama_War",4.2857,7,30.0000
170777,"Animation_Children_Comedy",5.0000,1,5.0000
170813,"Action_Comedy",3.0000,3,9.0000
170817,"Action_Comedy",4.0000,1,4.0000
170827,"Action_Adventure_Fantasy_Horror_Thriller",3.5000,1,3.5000
170837,"Children_Comedy_Fantasy",4.0000,1,4.0000
170875,"Action_Crime_Drama_Thriller",2.3333,3,7.0000
170897,"Comedy",2.0000,1,2.0000
170907,"Documentary",4.0000,1,4.0000
170937,"Comedy",3.0000,1,3.0000
170939,"Action_Animation_Children_Comedy",3.5000,1,3.5000
170945,"Horror_Mystery_Thriller",3.5000,1,3.5000
170957,"Adventure_Animation_Comedy",3.0000,1,3.0000
170993,"Comedy_Crime_Drama",4.0000,1,4.0000
171011,"Documentary",4.2000,5,21.0000
171023,"Drama",4.0000,1,4.0000
171251,"Documentary",4.0000,1,4.0000
171495,"(no_genres_listed)",4.5000,2,9.0000
171631,"(no_genres_listed)",1.0000,1,1.0000
171695,"Comedy",3.0000,1,3.0000
171701,"Drama",3.5000,1,3.5000
171749,"(no_genres_listed)",5.0000,1,5.0000
171751,"Comedy",2.5000,1,2.5000
171759,"Drama_Thriller_Western",3.0000,1,3.0000
171763,"Action_Crime_Thriller",4.3333,9,39.0000
171765,"Action_Adventure_Drama_Sci-Fi",3.7500,2,7.5000
171811,"Comedy_Sci-Fi_War",4.0000,1,4.0000
171867,"Comedy_Drama",3.2500,2,6.5000
171891,"(no_genres_listed)",3.5000,1,3.5000
171917,"Drama_Mystery_Thriller",4.5000,1,4.5000
172013,"Drama",3.0000,1,3.0000
172215,"Comedy",2.7500,2,5.5000
172229,"Comedy_Mystery_Romance_Thriller",3.0000,1,3.0000
172233,"Drama_Romance",2.5000,1,2.5000
172253,"Comedy",3.0000,1,3.0000
172321,"Comedy",2.0000,1,2.0000
172461,"Documentary",3.0000,1,3.0000
172497,"(no_genres_listed)",4.0000,1,4.0000
172547,"Adventure_Animation_Children_Comedy",2.2500,2,4.5000
172577,"Animation_Children_Comedy_Fantasy",5.0000,1,5.0000
172583,"Animation",5.0000,1,5.0000
172585,"Adventure_Animation_Children",5.0000,1,5.0000
172587,"Animation",5.0000,1,5.0000
172589,"Animation",5.0000,1,5.0000
172591,"(no_genres_listed)",4.7500,2,9.5000
172637,"Action_Adventure_Animation_Comedy",5.0000,1,5.0000
172705,"Documentary",5.0000,1,5.0000
172793,"Adventure_Animation_Children_Fantasy",5.0000,1,5.0000
172825,"Adventure_Animation_Children",4.5000,1,4.5000
172875,"Animation_Sci-Fi",5.0000,1,5.0000
172881,"Action_Animation_Sci-Fi",3.5000,1,3.5000
172887,"Animation_Sci-Fi",3.0000,1,3.0000
172909,"Animation",5.0000,1,5.0000
173145,"Action_Adventure_Drama_Sci-Fi",2.8750,4,11.5000
173197,"Drama",4.2500,2,8.5000
173205,"Comedy",4.0000,1,4.0000
173209,"Comedy_Drama_War",4.0000,1,4.0000
173235,"Documentary",4.5000,1,4.5000
173253,"Comedy",3.5000,1,3.5000
173255,"Comedy",2.5000,1,2.5000
173291,"Action_Adventure_Sci-Fi",2.8750,4,11.5000
173307,"Action_Horror_Sci-Fi",0.5000,1,0.5000
173317,"Documentary",4.5000,1,4.5000
173351,"Animation_Children_Comedy_Fantasy",5.0000,1,5.0000
173355,"Animation",5.0000,1,5.0000
173535,"(no_genres_listed)",4.5000,1,4.5000
173619,"Comedy_Crime",5.0000,1,5.0000
173751,"Thriller",2.0000,1,2.0000
173873,"Adventure_Children_Fantasy",2.0000,1,2.0000
173925,"Sci-Fi_Thriller",4.2500,2,8.5000
173941,"Thriller",3.0000,1,3.0000
173963,"Comedy",5.0000,1,5.0000
174045,"Comedy",4.0000,1,4.0000
174053,"Drama_Horror_Mystery_Sci-Fi_Thriller",4.7500,4,19.0000
174055,"Action_Drama_Thriller_War",3.4231,13,44.5000
174141,"Animation_Drama_Fantasy",3.5000,1,3.5000
174403,"(no_genres_listed)",2.5000,1,2.5000
174479,"Horror_Thriller",4.0000,1,4.0000
174551,"Comedy",5.0000,1,5.0000
174681,"Comedy",3.5000,1,3.5000
174727,"Crime_Drama",3.0000,1,3.0000
174737,"Comedy",3.0000,1,3.0000
174815,"Comedy",3.5000,1,3.5000
174909,"Comedy",4.5000,1,4.5000
175197,"Fantasy_Horror_Sci-Fi_Western",3.5000,1,3.5000
175199,"Horror",4.0000,1,4.0000
175293,"Animation_Children",5.0000,1,5.0000
175303,"Horror",3.3333,9,30.0000
175387,"Adventure_Animation_Children",5.0000,1,5.0000
175397,"Animation_Children_Fantasy",5.0000,1,5.0000
175401,"Animation",4.0000,1,4.0000
175431,"Animation_Comedy",5.0000,1,5.0000
175435,"Animation_Fantasy",4.5000,1,4.5000
175475,"Animation_Children_Comedy",0.5000,1,0.5000
175485,"Horror_Thriller",1.6667,3,5.0000
175569,"Action_Crime_Mystery_Thriller",3.4000,5,17.0000
175577,"Comedy",1.5000,1,1.5000
175585,"Action_Crime_Drama_Thriller",3.5000,1,3.5000
175661,"Action_Comedy",2.6667,3,8.0000
175693,"Comedy_Crime",2.5000,1,2.5000
175705,"Comedy_Horror",3.5000,1,3.5000
175707,"Documentary",3.0000,1,3.0000
175743,"Comedy",3.0000,1,3.0000
175781,"Comedy",3.0000,1,3.0000
176051,"Animation",3.5000,1,3.5000
176101,"Action_Adventure_Comedy",3.0625,8,24.5000
176329,"Comedy",4.0000,1,4.0000
176371,"Sci-Fi",3.8056,18,68.5000
176389,"Adventure_Animation_Children_Comedy",2.0000,1,2.0000
176413,"Drama",4.5000,1,4.5000
176415,"Comedy_Drama",3.5000,1,3.5000
176419,"Drama_Horror_Mystery_Thriller",3.2500,2,6.5000
176423,"Documentary",4.0000,1,4.0000
176579,"Drama_Horror_Thriller",1.0000,1,1.0000
176601,"(no_genres_listed)",5.0000,1,5.0000
176621,"Animation_Children_Comedy_Romance",2.0000,1,2.0000
176751,"Crime_Thriller",4.5000,2,9.0000
176805,"Comedy_Drama",4.0000,1,4.0000
176935,"Action",2.0000,1,2.0000
177185,"Comedy",4.5000,1,4.5000
177285,"Action_Adventure_Animation_Fantasy_Sci-Fi",3.0000,1,3.0000
177593,"Crime_Drama",4.7500,8,38.0000
177615,"Comedy",3.3333,3,10.0000
177763,"Crime_Drama_Mystery",2.8333,3,8.5000
177765,"Adventure_Animation_Children",3.5385,13,46.0000
177939,"Animation_Romance",4.5000,1,4.5000
178061,"Drama",3.3333,3,10.0000
178111,"Animation",2.0000,1,2.0000
178129,"Documentary",3.5000,1,3.5000
178323,"Documentary",3.5000,1,3.5000
178613,"Comedy",4.0000,1,4.0000
178615,"Comedy_Drama_Romance",3.5000,1,3.5000
178827,"Adventure_Animation_Children_Comedy",4.2500,2,8.5000
179053,"Sci-Fi_Thriller",3.5000,1,3.5000
179073,"Comedy",3.0000,1,3.0000
179119,"Comedy",4.0000,1,4.0000
179133,"Animation_Crime_Drama",5.0000,1,5.0000
179135,"Documentary",5.0000,1,5.0000
179211,"Comedy",3.0000,2,6.0000
179401,"Action_Adventure_Children",3.6667,6,22.0000
179427,"Comedy",4.0000,1,4.0000
179491,"Action_Horror",1.0000,1,1.0000
179511,"Adventure_Drama_Fantasy_Romance",4.0000,1,4.0000
179709,"Drama",3.0000,1,3.0000
179749,"Comedy_Horror",1.5000,1,1.5000
179813,"Drama",4.0000,1,4.0000
179815,"Drama_Thriller",1.5000,1,1.5000
179817,"Drama_War",3.8333,3,11.5000
179819,"Action_Adventure_Fantasy_Sci-Fi",3.1250,12,37.5000
179953,"Comedy",3.5000,1,3.5000
180031,"Adventure_Drama_Fantasy",3.6875,8,29.5000
180045,"Drama",4.0000,1,4.0000
180095,"Drama",4.0000,3,12.0000
180231,"Comedy_Drama",4.0000,1,4.0000
180263,"Drama_Horror_Thriller",2.0000,1,2.0000
180265,"Documentary",4.5000,1,4.5000
180297,"Comedy_Drama",3.7500,2,7.5000
180497,"Drama_Thriller",4.2500,2,8.5000
180777,"Documentary",4.5000,1,4.5000
180985,"Drama",3.0000,5,15.0000
180987,"Animation_Children_Comedy",1.5000,1,1.5000
181065,"Comedy",3.7500,2,7.5000
181139,"Comedy",1.5000,1,1.5000
181315,"Drama_Romance",3.5000,1,3.5000
181413,"(no_genres_listed)",4.5000,1,4.5000
181659,"Comedy",2.5000,1,2.5000
181719,"(no_genres_listed)",3.5000,1,3.5000
182293,"Animation_Children_Comedy",4.0000,1,4.0000
182297,"Animation_Comedy_Fantasy",4.0000,1,4.0000
182299,"Animation_Children_Comedy",4.0000,1,4.0000
182639,"Animation_Sci-Fi",4.0000,1,4.0000
182715,"Adventure_Mystery_Sci-Fi_Thriller",3.8333,3,11.5000
182727,"(no_genres_listed)",2.0000,1,2.0000
182731,"Children_Comedy_Sci-Fi",4.5000,1,4.5000
182749,"Comedy",2.5000,1,2.5000
182793,"Drama",3.5000,1,3.5000
182823,"Action_Crime_Fantasy",2.8750,4,11.5000
183011,"Crime_Drama_Mystery_Thriller",1.5000,1,1.5000
183197,"Comedy",3.5000,1,3.5000
183199,"Documentary",4.0000,1,4.0000
183227,"Comedy",3.5000,1,3.5000
183295,"Horror_Mystery_Thriller",3.5000,1,3.5000
183301,"Children",3.0000,1,3.0000
183317,"Comedy_Drama",4.5000,1,4.5000
183611,"Action_Comedy_Crime_Horror",4.0000,1,4.0000
183635,"Action_Mystery_Sci-Fi_Thriller",3.5000,1,3.5000
183897,"Animation_Comedy",3.5000,5,17.5000
183911,"Comedy",1.5000,1,1.5000
183959,"Comedy",4.5000,1,4.5000
184015,"Comedy",3.5000,2,7.0000
184053,"Action_Sci-Fi",2.0000,1,2.0000
184245,"Documentary",5.0000,1,5.0000
184253,"Horror_Mystery_Sci-Fi_Thriller",2.2500,2,4.5000
184257,"Crime_Documentary",4.0000,1,4.0000
184349,"Comedy_Drama_Romance",3.5000,1,3.5000
184471,"Action_Adventure_Fantasy",2.5000,4,10.0000
184641,"Action_Adventure_Fantasy",0.5000,1,0.5000
184721,"Drama_Thriller",4.0000,1,4.0000
184791,"Comedy",3.2500,2,6.5000
184931,"Action_Crime_Drama_Thriller",4.0000,1,4.0000
184987,"Adventure_Children_Fantasy_Sci-Fi",3.0000,1,3.0000
184997,"Comedy_Drama",4.0000,1,4.0000
185029,"Drama_Horror_Thriller",2.7500,4,11.0000
185031,"Adventure_Thriller",4.5000,1,4.5000
185033,"Drama_Fantasy_Thriller",2.0000,1,2.0000
185135,"Crime",4.7500,2,9.5000
185435,"Action_Comedy",3.0000,1,3.0000
185473,"Comedy",3.0000,1,3.0000
185585,"Action_Fantasy_Sci-Fi",2.7500,2,5.5000
186587,"Action_Adventure_Sci-Fi",3.0000,1,3.0000
187031,"Action_Adventure_Drama_Sci-Fi_Thriller",3.2500,2,6.5000
187541,"Action_Adventure_Animation_Children",3.0000,4,12.0000
187593,"Action_Comedy_Sci-Fi",3.8750,12,46.5000
187595,"Action_Adventure_Children_Sci-Fi",3.9000,5,19.5000
187717,"Documentary",5.0000,1,5.0000
188189,"Comedy_Fantasy_Sci-Fi",4.5000,1,4.5000
188301,"Action_Adventure_Comedy_Fantasy_Sci-Fi",3.6667,3,11.0000
188675,"Crime_Drama",3.5000,1,3.5000
188751,"Comedy_Romance",4.5000,1,4.5000
188797,"Comedy",4.0000,1,4.0000
188833,"Adventure_Comedy_Fantasy",4.5000,1,4.5000
189043,"Comedy_Drama",2.5000,1,2.5000
189111,"Documentary",3.0000,1,3.0000
189333,"Action_Adventure_Thriller",3.7500,2,7.5000
189381,"Action_Crime_Thriller",2.5000,1,2.5000
189547,"Action_Sci-Fi",1.0000,1,1.0000
189713,"Comedy_Crime_Drama",2.5000,1,2.5000
190183,"Sci-Fi_Thriller",3.5000,1,3.5000
190207,"Drama_Romance",1.5000,1,1.5000
190209,"Comedy",4.0000,1,4.0000
190213,"Drama",1.0000,1,1.0000
190215,"Drama",1.5000,1,1.5000
190219,"Animation",1.0000,1,1.0000
190221,"Documentary",1.0000,1,1.0000
191005,"Action_Adventure_Comedy_Sci-Fi",4.5000,1,4.5000
193565,"Action_Animation_Comedy_Sci-Fi",3.5000,1,3.5000
193567,"Animation_Drama",3.0000,1,3.0000
193571,"Comedy_Drama",4.0000,1,4.0000
193573,"Animation",4.0000,1,4.0000
193579,"Documentary",3.5000,1,3.5000
193581,"Action_Animation_Comedy_Fantasy",4.0000,1,4.0000
193583,"Animation_Comedy_Fantasy",3.5000,1,3.5000
193585,"Drama",3.5000,1,3.5000
193587,"Action_Animation",3.5000,1,3.5000
193609,"Comedy",4.0000,1,4.0000
